 VARIABLES = X,Y,DU1,DU2,U1,U2,S11,S22,S12
 ZONE, T="0.1000D+01" F=FEPOINT, I=    9 J=    8
   0.0000000000E+00   0.0000000000E+00   0.0000000000E+00   0.0000000000E+00   0.0000000000E+00   0.0000000000E+00   0.5899339264E+01   0.1538699157E+01   0.0000000000E+00
   0.2100000000E+01   0.2661818703E-01   0.1000000000E+00   0.2661818703E-01   0.0000000000E+00   0.0000000000E+00   0.4768517456E+01  -0.1461181552E+00   0.0000000000E+00
   0.2100000000E+01   0.1979160363E+01   0.1000000000E+00  -0.2083963695E-01   0.0000000000E+00   0.0000000000E+00   0.5922046071E+01  -0.1015891043E+01   0.0000000000E+00
   0.1051621880E+01   0.2221595813E-01   0.5162187958E-01   0.2221595813E-01   0.0000000000E+00   0.0000000000E+00   0.5653333724E+01   0.1414413857E-01   0.0000000000E+00
   0.2100000000E+01   0.1004091017E+01   0.1000000000E+00   0.4091017182E-02   0.0000000000E+00   0.0000000000E+00   0.5764073298E+01   0.3329910124E-01   0.0000000000E+00
   0.1046061181E+01   0.1001346241E+01   0.4606118092E-01   0.1346241357E-02   0.0000000000E+00   0.0000000000E+00   0.5910692663E+01   0.2614040568E+00   0.0000000000E+00
   0.0000000000E+00   0.2000000000E+01   0.0000000000E+00   0.0000000000E+00   0.0000000000E+00   0.0000000000E+00   0.5972339315E+01   0.2405888884E+01   0.0000000000E+00
   0.1046086225E+01   0.1982071851E+01   0.4608622487E-01  -0.1792814862E-01   0.0000000000E+00   0.0000000000E+00   0.5528401144E+01   0.8069522160E-01   0.0000000000E+00
   0.0000000000E+00   0.1000000000E+01   0.0000000000E+00   0.0000000000E+00   0.0000000000E+00   0.0000000000E+00   0.5616433918E+01   0.2654440381E+01   0.0000000000E+00
           1           4           6           6
           4           2           5           5
           5           3           6           6
           4           5           6           6
           1           6           9           9
           6           3           8           8
           8           7           9           9
           6           8           9           9
 VARIABLES = X,Y,DU1,DU2,U1,U2,S11,S22,S12
 ZONE, T="0.2000D+01" F=FEPOINT, I=    9 J=    8
   0.0000000000E+00   0.0000000000E+00   0.0000000000E+00   0.0000000000E+00   0.0000000000E+00   0.0000000000E+00   0.1179867853E+02   0.3077398315E+01   0.0000000000E+00
   0.2200000000E+01   0.5323637407E-01   0.1000000000E+00   0.2661818703E-01   0.1000000000E+00   0.2661818703E-01   0.9537034911E+01  -0.2922363103E+00   0.0000000000E+00
   0.2200000000E+01   0.1958320726E+01   0.1000000000E+00  -0.2083963695E-01   0.1000000000E+00  -0.2083963695E-01   0.1184409214E+02  -0.2031782086E+01   0.0000000000E+00
   0.1103243759E+01   0.4443191626E-01   0.5162187958E-01   0.2221595813E-01   0.5162187958E-01   0.2221595813E-01   0.1130666745E+02   0.2828827713E-01   0.0000000000E+00
   0.2200000000E+01   0.1008182034E+01   0.1000000000E+00   0.4091017182E-02   0.1000000000E+00   0.4091017182E-02   0.1152814660E+02   0.6659820248E-01   0.0000000000E+00
   0.1092122362E+01   0.1002692483E+01   0.4606118092E-01   0.1346241357E-02   0.4606118092E-01   0.1346241357E-02   0.1182138533E+02   0.5228081136E+00   0.0000000000E+00
   0.0000000000E+00   0.2000000000E+01   0.0000000000E+00   0.0000000000E+00   0.0000000000E+00   0.0000000000E+00   0.1194467863E+02   0.4811777768E+01   0.0000000000E+00
   0.1092172450E+01   0.1964143703E+01   0.4608622487E-01  -0.1792814862E-01   0.4608622487E-01  -0.1792814862E-01   0.1105680229E+02   0.1613904432E+00   0.0000000000E+00
   0.0000000000E+00   0.1000000000E+01   0.0000000000E+00   0.0000000000E+00   0.0000000000E+00   0.0000000000E+00   0.1123286784E+02   0.5308880763E+01   0.0000000000E+00
           1           4           6           6
           4           2           5           5
           5           3           6           6
           4           5           6           6
           1           6           9           9
           6           3           8           8
           8           7           9           9
           6           8           9           9
 VARIABLES = X,Y,DU1,DU2,U1,U2,S11,S22,S12
 ZONE, T="0.3000D+01" F=FEPOINT, I=    9 J=    8
   0.0000000000E+00   0.0000000000E+00   0.0000000000E+00   0.0000000000E+00   0.0000000000E+00   0.0000000000E+00   0.1769801779E+02   0.4616097472E+01   0.0000000000E+00
   0.2300000000E+01   0.7985456110E-01   0.1000000000E+00   0.2661818703E-01   0.2000000000E+00   0.5323637407E-01   0.1430555237E+02  -0.4383544655E+00   0.0000000000E+00
   0.2300000000E+01   0.1937481089E+01   0.1000000000E+00  -0.2083963695E-01   0.2000000000E+00  -0.4167927390E-01   0.1776613821E+02  -0.3047673129E+01   0.0000000000E+00
   0.1154865639E+01   0.6664787439E-01   0.5162187958E-01   0.2221595813E-01   0.1032437592E+00   0.4443191626E-01   0.1696000117E+02   0.4243241570E-01   0.0000000000E+00
   0.2300000000E+01   0.1012273052E+01   0.1000000000E+00   0.4091017182E-02   0.2000000000E+00   0.8182034365E-02   0.1729221989E+02   0.9989730372E-01   0.0000000000E+00
   0.1138183543E+01   0.1004038724E+01   0.4606118092E-01   0.1346241357E-02   0.9212236184E-01   0.2692482714E-02   0.1773207799E+02   0.7842121703E+00   0.0000000000E+00
   0.0000000000E+00   0.2000000000E+01   0.0000000000E+00   0.0000000000E+00   0.0000000000E+00   0.0000000000E+00   0.1791701795E+02   0.7217666652E+01   0.0000000000E+00
   0.1138258675E+01   0.1946215554E+01   0.4608622487E-01  -0.1792814862E-01   0.9217244974E-01  -0.3585629724E-01   0.1658520343E+02   0.2420856648E+00   0.0000000000E+00
   0.0000000000E+00   0.1000000000E+01   0.0000000000E+00   0.0000000000E+00   0.0000000000E+00   0.0000000000E+00   0.1684930175E+02   0.7963321144E+01   0.0000000000E+00
           1           4           6           6
           4           2           5           5
           5           3           6           6
           4           5           6           6
           1           6           9           9
           6           3           8           8
           8           7           9           9
           6           8           9           9
