 VARIABLES = X,Y,Z,S11,S22,S33,S12,S13,S23,SMISES,P1,P2,P3
 ZONE, T="0.1000D+01" F=FEPOINT, I=   12 J=    2 ET=BRICK
   0.0000000000E+00   0.0000000000E+00   0.0000000000E+00   0.3057836620E+02   0.1761369797E-07   0.1761370038E-07   0.8074763861E-14   0.2394078503E-15   0.4274300721E-14   0.3057836619E+02   0.3057836620E+02  -0.6934841424E-07   0.1045758178E-06
   0.1900000000E+01   0.3691115358E-15  -0.6074128465E-16   0.3057836620E+02   0.1761185968E-07   0.1761185209E-07   0.1306044873E-14  -0.3763829870E-14  -0.2505963448E-14   0.3057836618E+02   0.3057836620E+02   0.5116552736E-07  -0.1594181537E-07
   0.1900000000E+01   0.7291274386E+00  -0.1798392542E-15   0.3057836620E+02   0.1761388073E-07   0.1761388831E-07  -0.2082793608E-14   0.7156957396E-14  -0.2540300371E-14   0.3057836618E+02   0.3057836620E+02   0.1391783622E-06  -0.1039505933E-06
   0.0000000000E+00   0.7291274386E+00   0.0000000000E+00   0.3057836620E+02   0.1761174214E-07   0.1761173626E-07   0.1103838054E-14  -0.5079736942E-14  -0.1327232558E-14   0.3057836618E+02   0.3057836620E+02   0.1706191474E-06  -0.1353956706E-06
   0.0000000000E+00   0.5792951989E-15   0.7291274386E+00   0.3057836620E+02   0.1761231536E-07   0.1761232055E-07  -0.1002472437E-13  -0.1468334022E-13   0.1407232384E-16   0.3057836618E+02   0.3057836620E+02   0.1743437797E-06  -0.1391191485E-06
   0.1900000000E+01   0.1512677243E-15   0.7291274386E+00   0.3057836620E+02   0.1761172746E-07   0.1761172349E-07  -0.3963298603E-15  -0.4958431649E-14   0.2961417459E-14   0.3057836618E+02   0.3057836620E+02   0.3543725992E-07  -0.2138031452E-09
   0.1900000000E+01   0.7291274386E+00   0.7291274386E+00   0.3057836620E+02   0.1761341803E-07   0.1761342923E-07   0.1503725650E-14   0.8828156349E-14   0.2927080535E-14   0.3057836618E+02   0.3057836620E+02   0.1185653474E-07   0.2337031455E-07
   0.0000000000E+00   0.7291274386E+00   0.7291274386E+00   0.3057836620E+02   0.1761234423E-07   0.1761234112E-07   0.8162396449E-15   0.1581563546E-13  -0.5587460954E-14   0.3057836618E+02   0.3057836620E+02   0.2044130138E-06  -0.1691883329E-06
   0.3800000000E+01   0.5283502810E-15  -0.4121558039E-15   0.3057836620E+02   0.1761196397E-07   0.1761196562E-07   0.1807940623E-14  -0.6016767436E-14   0.1091046498E-14   0.3057836618E+02   0.3057836620E+02   0.6160401822E-07  -0.2638008759E-07
   0.3800000000E+01   0.7291274386E+00   0.1447112890E-15   0.3057836620E+02   0.1761250725E-07   0.1761250519E-07   0.2001189467E-14   0.9363469912E-14   0.1785929885E-15   0.3057836618E+02   0.3057836620E+02   0.1465093831E-06  -0.1112843756E-06
   0.3800000000E+01   0.1140709060E-15   0.7291274386E+00   0.3057836620E+02   0.1761308408E-07   0.1761308489E-07   0.1254543660E-14   0.6516777072E-14  -0.1140001853E-14   0.3057836618E+02   0.3057836620E+02   0.1983794327E-06  -0.1631532688E-06
   0.3800000000E+01   0.7291274386E+00   0.7291274386E+00   0.3057836619E+02   0.1761097254E-07   0.1761096964E-07  -0.5786309327E-14  -0.8189504586E-14  -0.2052455362E-14   0.3057836618E+02   0.3057836619E+02   0.8125830497E-07  -0.4603636038E-07
     1     2     3     4     5     6     7     8
     2     9    10     3     6    11    12     7
 VARIABLES = X,Y,Z,S11,S22,S33,S12,S13,S23,SMISES,P1,P2,P3
 ZONE, T="0.2000D+01" F=FEPOINT, I=   12 J=    2 ET=BRICK
   0.0000000000E+00   0.0000000000E+00   0.0000000000E+00   0.2983006032E+02   0.7483059012E+00   0.1761399636E-07   0.4724617406E+01   0.2094030189E-09   0.3317043647E-10   0.3057836619E+02   0.3057836620E+02  -0.5740238330E-07   0.9263037712E-07
   0.1876607847E+01   0.2972254836E+00   0.7489005848E-11   0.2983006029E+02   0.7483058746E+00  -0.9153460208E-08   0.4724617406E+01  -0.7897243418E-15  -0.1457983198E-14   0.3057836619E+02   0.3057836618E+02   0.1257873431E-06  -0.1439315802E-06
   0.1762547186E+01   0.1017376153E+01   0.7488901452E-11   0.2983006029E+02   0.7483058745E+00  -0.9152603864E-08   0.4724617405E+01   0.1171298459E-14  -0.1334982547E-14   0.3057836618E+02   0.3057836617E+02  -0.8590403927E-07   0.6776150811E-07
  -0.1140606608E+00   0.7201506699E+00   0.0000000000E+00   0.2983006032E+02   0.7483059011E+00   0.1761190554E-07   0.4724617405E+01   0.2093997142E-09   0.3316457414E-10   0.3057836618E+02   0.3057836620E+02   0.9915715509E-08   0.2530810852E-07
  -0.9062173454E-16   0.5721631137E-15   0.7291274386E+00   0.2983006032E+02   0.7483059011E+00   0.1761203624E-07   0.4724617405E+01  -0.2094145691E-09  -0.3316735948E-10   0.3057836618E+02   0.3057836620E+02   0.2596059191E-06  -0.2243818594E-06
   0.1876607847E+01   0.2972254836E+00   0.7291274386E+00   0.2983006029E+02   0.7483058745E+00  -0.9153346279E-08   0.4724617405E+01  -0.1287189567E-14   0.2067584978E-14   0.3057836618E+02   0.3057836617E+02  -0.7706992719E-07   0.5892592401E-07
   0.1762547186E+01   0.1017376153E+01   0.7291274386E+00   0.2983006029E+02   0.7483058744E+00  -0.9152605958E-08   0.4724617405E+01   0.2531666238E-14   0.2484838034E-14   0.3057836618E+02   0.3057836617E+02  -0.5747531561E-08  -0.1239500512E-07
  -0.1140606608E+00   0.7201506699E+00   0.7291274386E+00   0.2983006031E+02   0.7483059010E+00   0.1761181831E-07   0.4724617405E+01  -0.2093910323E-09  -0.3316897052E-10   0.3057836618E+02   0.3057836620E+02   0.1398990183E-06  -0.1046753896E-06
   0.3753215694E+01   0.5944509672E+00  -0.4121558039E-15   0.2983006032E+02   0.7483059011E+00   0.1761327249E-07   0.4724617405E+01  -0.2094141691E-09  -0.3316692907E-10   0.3057836618E+02   0.3057836620E+02  -0.1396570196E-06   0.1748835620E-06
   0.3639155033E+01   0.1314601637E+01   0.1447112890E-15   0.2983006031E+02   0.7483059011E+00   0.1761271312E-07   0.4724617405E+01  -0.2093957175E-09  -0.3316500883E-10   0.3057836618E+02   0.3057836620E+02   0.3913186526E-06  -0.3560932301E-06
   0.3753215694E+01   0.5944509672E+00   0.7291274386E+00   0.2983006031E+02   0.7483059010E+00   0.1761250277E-07   0.4724617405E+01   0.2094044664E-09   0.3316502296E-10   0.3057836618E+02   0.3057836620E+02   0.7568415396E-07  -0.4045916146E-07
   0.3639155033E+01   0.1314601637E+01   0.7291274386E+00   0.2983006031E+02   0.7483059010E+00   0.1761098662E-07   0.4724617404E+01   0.2093997921E-09   0.3316328041E-10   0.3057836618E+02   0.3057836619E+02  -0.7389144409E-07   0.1091134157E-06
     1     2     3     4     5     6     7     8
     2     9    10     3     6    11    12     7
 VARIABLES = X,Y,Z,S11,S22,S33,S12,S13,S23,SMISES,P1,P2,P3
 ZONE, T="0.3000D+01" F=FEPOINT, I=   12 J=    2 ET=BRICK
   0.0000000000E+00   0.0000000000E+00   0.0000000000E+00   0.2765838777E+02   0.2919978433E+01   0.9281010892E-08   0.8986762236E+01  -0.6190088198E-05  -0.2011282191E-05   0.3057836619E+02   0.3057836619E+02   0.9665524296E-08   0.8895461628E-08
   0.1807007301E+01   0.5871325341E+00  -0.2299072637E-06   0.2765831486E+02   0.2919889683E+01  -0.7119941424E-04   0.8986758984E+01   0.1794335555E-12  -0.5631104394E-12   0.3057836812E+02   0.3057828986E+02  -0.7119884844E-04  -0.8531670439E-04
   0.1581694691E+01   0.1280573446E+01  -0.2299072641E-06   0.2765831486E+02   0.2919889683E+01  -0.7119941412E-04   0.8986758983E+01  -0.1744275294E-12   0.5577678025E-12   0.3057836811E+02   0.3057828986E+02  -0.7120034920E-04  -0.8531520337E-04
  -0.2253127696E+00   0.6934414017E+00   0.0000000000E+00   0.2765839635E+02   0.2919969884E+01   0.2608976764E-07   0.8986750446E+01  -0.6190088570E-05  -0.2011281081E-05   0.3057836618E+02   0.3057836621E+02   0.3743738766E-07   0.1474110551E-07
  -0.1790120612E-15   0.5509424738E-15   0.7291274386E+00   0.2765838777E+02   0.2919978432E+01   0.9281394806E-08   0.8986762235E+01   0.6190088186E-05   0.2011282192E-05   0.3057836618E+02   0.3057836619E+02   0.2746313155E-07  -0.8901399293E-08
   0.1807007301E+01   0.5871325341E+00   0.7291276685E+00   0.2765831486E+02   0.2919889683E+01  -0.7119941399E-04   0.8986758983E+01  -0.1861127920E-12   0.5599785910E-12   0.3057836811E+02   0.3057828986E+02  -0.7120197684E-04  -0.8531357548E-04
   0.1581694691E+01   0.1280573446E+01   0.7291276685E+00   0.2765831485E+02   0.2919889682E+01  -0.7119941339E-04   0.8986758982E+01   0.1887967611E-12  -0.5544156234E-12   0.3057836811E+02   0.3057828985E+02  -0.7119640443E-04  -0.8531914669E-04
  -0.2253127696E+00   0.6934414017E+00   0.7291274386E+00   0.2765839635E+02   0.2919969883E+01   0.2608808944E-07   0.8986750445E+01   0.6190088573E-05   0.2011281076E-05   0.3057836618E+02   0.3057836621E+02   0.1054825972E-07   0.4162687661E-07
   0.3614014762E+01   0.1174264579E+01  -0.4121558039E-15   0.2765839635E+02   0.2919969884E+01   0.2609089768E-07   0.8986750447E+01   0.6190088549E-05   0.2011281075E-05   0.3057836618E+02   0.3057836621E+02   0.5175766248E-08   0.4700498875E-07
   0.3388701992E+01   0.1867705980E+01   0.1447112890E-15   0.2765838777E+02   0.2919978432E+01   0.9280580745E-08   0.8986762235E+01   0.6190088208E-05   0.2011282199E-05   0.3057836618E+02   0.3057836619E+02   0.8217559510E-08   0.1034255496E-07
   0.3614014762E+01   0.1174264579E+01   0.7291274386E+00   0.2765839635E+02   0.2919969884E+01   0.2608989331E-07   0.8986750446E+01  -0.6190088559E-05  -0.2011281077E-05   0.3057836618E+02   0.3057836621E+02   0.4732258863E-07   0.4856148397E-08
   0.3388701992E+01   0.1867705980E+01   0.7291274386E+00   0.2765838776E+02   0.2919978432E+01   0.9281371706E-08   0.8986762233E+01  -0.6190088203E-05  -0.2011282198E-05   0.3057836618E+02   0.3057836619E+02   0.3040231983E-08   0.1552147901E-07
     1     2     3     4     5     6     7     8
     2     9    10     3     6    11    12     7
 VARIABLES = X,Y,Z,S11,S22,S33,S12,S13,S23,SMISES,P1,P2,P3
 ZONE, T="0.4000D+01" F=FEPOINT, I=   12 J=    2 ET=BRICK
   0.0000000000E+00   0.0000000000E+00   0.0000000000E+00   0.2427593372E+02   0.6302432355E+01  -0.5138206968E-07   0.1236921306E+02  -0.5575309553E-05  -0.2840762709E-05   0.3057836618E+02   0.3057836613E+02  -0.7497872862E-07  -0.2778639991E-07
   0.1692912284E+01   0.8625821695E+00  -0.2210295245E-06   0.2427586570E+02   0.6302347962E+01  -0.6700612173E-04   0.1236921243E+02   0.2433447519E-12  -0.4859196870E-12   0.3057836801E+02   0.3057829422E+02  -0.6700338877E-04  -0.8056572404E-04
   0.1361895578E+01   0.1512239034E+01  -0.2210295245E-06   0.2427586570E+02   0.6302347961E+01  -0.6700612211E-04   0.1236921243E+02  -0.2431455018E-12   0.4857862370E-12   0.3057836800E+02   0.3057829422E+02  -0.6700642832E-04  -0.8056268526E-04
  -0.3310169302E+00   0.6496573047E+00   0.0000000000E+00   0.2427594518E+02   0.6302421183E+01   0.8674176645E-07   0.1236920484E+02  -0.5575310046E-05  -0.2840761751E-05   0.3057836619E+02   0.3057836627E+02   0.1016402170E-06   0.7184234095E-07
  -0.2629945168E-15   0.5161558016E-15   0.7291274386E+00   0.2427593372E+02   0.6302432354E+01  -0.5138307164E-07   0.1236921306E+02   0.5575309545E-05   0.2840762711E-05   0.3057836618E+02   0.3057836613E+02  -0.5129645330E-07  -0.5147068313E-07
   0.1692912284E+01   0.8625821695E+00   0.7291276596E+00   0.2427586570E+02   0.6302347961E+01  -0.6700612218E-04   0.1236921243E+02  -0.2493708759E-12   0.4802089986E-12   0.3057836800E+02   0.3057829422E+02  -0.6700982475E-04  -0.8055928897E-04
   0.1361895578E+01   0.1512239034E+01   0.7291276596E+00   0.2427586569E+02   0.6302347960E+01  -0.6700612222E-04   0.1236921243E+02   0.2504758657E-12  -0.4793281892E-12   0.3057836800E+02   0.3057829422E+02  -0.6700254672E-04  -0.8056656709E-04
  -0.3310169302E+00   0.6496573047E+00   0.7291274386E+00   0.2427594517E+02   0.6302421182E+01   0.8674140763E-07   0.1236920484E+02   0.5575310050E-05   0.2840761745E-05   0.3057836618E+02   0.3057836627E+02   0.7378211736E-07   0.9969972288E-07
   0.3385824792E+01   0.1725163899E+01  -0.4121558039E-15   0.2427594518E+02   0.6302421183E+01   0.8674220560E-07   0.1236920484E+02   0.5575310035E-05   0.2840761747E-05   0.3057836619E+02   0.3057836627E+02   0.8402544847E-07   0.8945797279E-07
   0.3054807862E+01   0.2374821204E+01   0.1447112890E-15   0.2427593372E+02   0.6302432353E+01  -0.5138311473E-07   0.1236921306E+02   0.5575309555E-05   0.2840762713E-05   0.3057836618E+02   0.3057836613E+02  -0.6243514002E-07  -0.4033207513E-07
   0.3385824792E+01   0.1725163899E+01   0.7291274386E+00   0.2427594518E+02   0.6302421182E+01   0.8674227313E-07   0.1236920484E+02  -0.5575310044E-05  -0.2840761747E-05   0.3057836618E+02   0.3057836627E+02   0.1040641054E-06   0.6941946101E-07
   0.3054807862E+01   0.2374821204E+01   0.7291274386E+00   0.2427593372E+02   0.6302432353E+01  -0.5138300773E-07   0.1236921306E+02  -0.5575309550E-05  -0.2840762717E-05   0.3057836617E+02   0.3057836612E+02  -0.4744863241E-07  -0.5531836884E-07
     1     2     3     4     5     6     7     8
     2     9    10     3     6    11    12     7
 VARIABLES = X,Y,Z,S11,S22,S33,S12,S13,S23,SMISES,P1,P2,P3
 ZONE, T="0.5000D+01" F=FEPOINT, I=   12 J=    2 ET=BRICK
   0.0000000000E+00   0.0000000000E+00   0.0000000000E+00   0.2001379395E+02   0.1056457204E+02  -0.9806327156E-07   0.1454087930E+02  -0.4918868992E-05  -0.3573768139E-05   0.3057836618E+02   0.3057836608E+02  -0.1175160183E-06  -0.7861146150E-07
   0.1537132148E+01   0.1116792173E+01  -0.2147681157E-06   0.2001372886E+02   0.1056449148E+02  -0.6392351670E-04   0.1454088117E+02   0.3014744469E-12  -0.4157260731E-12   0.3057836793E+02   0.3057829742E+02  -0.6391791103E-04  -0.7708985171E-04
   0.1108562075E+01   0.1706668275E+01  -0.2147681163E-06   0.2001372886E+02   0.1056449148E+02  -0.6392351578E-04   0.1454088117E+02  -0.2928573825E-12   0.4168938306E-12   0.3057836792E+02   0.3057829742E+02  -0.6392214698E-04  -0.7708561393E-04
  -0.4285703554E+00   0.5898764889E+00   0.0000000000E+00   0.2001380708E+02   0.1056455937E+02   0.1334152069E-06   0.1454087512E+02  -0.4918869605E-05  -0.3573767328E-05   0.3057836619E+02   0.3057836632E+02   0.1383450104E-06   0.1284844656E-06
  -0.3405011746E-15   0.4686596607E-15   0.7291274386E+00   0.2001379395E+02   0.1056457203E+02  -0.9806381046E-07   0.1454087930E+02   0.4918868987E-05   0.3573768141E-05   0.3057836618E+02   0.3057836608E+02  -0.9219381592E-07  -0.1039347604E-06
   0.1537132148E+01   0.1116792173E+01   0.7291276534E+00   0.2001372886E+02   0.1056449148E+02  -0.6392351633E-04   0.1454088117E+02  -0.3029247901E-12   0.4155526618E-12   0.3057836792E+02   0.3057829742E+02  -0.6392565460E-04  -0.7708210739E-04
   0.1108562075E+01   0.1706668275E+01   0.7291276534E+00   0.2001372885E+02   0.1056449148E+02  -0.6392351553E-04   0.1454088116E+02   0.3057636381E-12  -0.4041231170E-12   0.3057836792E+02   0.3057829742E+02  -0.6392229295E-04  -0.7708546745E-04
  -0.4285703554E+00   0.5898764889E+00   0.7291274386E+00   0.2001380708E+02   0.1056455937E+02   0.1334147444E-06   0.1454087511E+02   0.4918869605E-05   0.3573767320E-05   0.3057836618E+02   0.3057836632E+02   0.1408696775E-06   0.1259588515E-06
   0.3074264579E+01   0.2233583959E+01  -0.4121558039E-15   0.2001380708E+02   0.1056455937E+02   0.1334155565E-06   0.1454087512E+02   0.4918869582E-05   0.3573767309E-05   0.3057836619E+02   0.3057836632E+02   0.1400732556E-06   0.1267569057E-06
   0.2645694223E+01   0.2823460448E+01   0.1447112890E-15   0.2001379394E+02   0.1056457203E+02  -0.9806410007E-07   0.1454087930E+02   0.4918869004E-05   0.3573768154E-05   0.3057836617E+02   0.3057836608E+02  -0.1118495050E-06  -0.8427964975E-07
   0.3074264579E+01   0.2233583959E+01   0.7291274386E+00   0.2001380708E+02   0.1056455937E+02   0.1334152161E-06   0.1454087511E+02  -0.4918869594E-05  -0.3573767322E-05   0.3057836619E+02   0.3057836632E+02   0.1266529310E-06   0.1401765580E-06
   0.2645694223E+01   0.2823460448E+01   0.7291274386E+00   0.2001379394E+02   0.1056457203E+02  -0.9806356269E-07   0.1454087930E+02  -0.4918868997E-05  -0.3573768149E-05   0.3057836617E+02   0.3057836607E+02  -0.8559341276E-07  -0.1105346642E-06
     1     2     3     4     5     6     7     8
     2     9    10     3     6    11    12     7
 VARIABLES = X,Y,Z,S11,S22,S33,S12,S13,S23,SMISES,P1,P2,P3
 ZONE, T="0.6000D+01" F=FEPOINT, I=   12 J=    2 ET=BRICK
   0.0000000000E+00   0.0000000000E+00   0.0000000000E+00   0.1528917633E+02   0.1528918962E+02  -0.1143813122E-06   0.1528918309E+02  -0.4220286158E-05  -0.4220286848E-05   0.3057836618E+02   0.3057836606E+02  -0.1137371004E-06  -0.1150264394E-06
   0.1343502718E+01   0.1343503050E+01  -0.2108235404E-06   0.1528911243E+02   0.1528911243E+02  -0.6182417202E-04   0.1528918716E+02   0.3487163863E-12  -0.3459178295E-12   0.3057836787E+02   0.3057829959E+02  -0.6182813083E-04  -0.7472977370E-04
   0.8279320942E+00   0.1859073675E+01  -0.2108235406E-06   0.1528911243E+02   0.1528911243E+02  -0.6182417074E-04   0.1528918716E+02  -0.3389521665E-12   0.3519164669E-12   0.3057836787E+02   0.3057829959E+02  -0.6181933706E-04  -0.7473856493E-04
  -0.5155709562E+00   0.5155709562E+00   0.0000000000E+00   0.1528918989E+02   0.1528917660E+02   0.1497289125E-06   0.1528918309E+02  -0.4220286856E-05  -0.4220286161E-05   0.3057836619E+02   0.3057836634E+02   0.1649370963E-06   0.1345198091E-06
  -0.4096235634E-15   0.4096235634E-15   0.7291274386E+00   0.1528917633E+02   0.1528918962E+02  -0.1143810061E-06   0.1528918309E+02   0.4220286149E-05   0.4220286844E-05   0.3057836618E+02   0.3057836606E+02  -0.1091396941E-06  -0.1196232536E-06
   0.1343502718E+01   0.1343503050E+01   0.7291276494E+00   0.1528911243E+02   0.1528911243E+02  -0.6182417197E-04   0.1528918716E+02  -0.3494054197E-12   0.3509699255E-12   0.3057836787E+02   0.3057829959E+02  -0.6182738656E-04  -0.7473051788E-04
   0.8279320942E+00   0.1859073675E+01   0.7291276494E+00   0.1528911242E+02   0.1528911243E+02  -0.6182417124E-04   0.1528918716E+02   0.3554652747E-12  -0.3400360881E-12   0.3057836786E+02   0.3057829959E+02  -0.6182634282E-04  -0.7473156017E-04
  -0.5155709562E+00   0.5155709562E+00   0.7291274386E+00   0.1528918989E+02   0.1528917660E+02   0.1497284707E-06   0.1528918309E+02   0.4220286860E-05   0.4220286160E-05   0.3057836619E+02   0.3057836634E+02   0.1498938887E-06   0.1495621340E-06
   0.2687005769E+01   0.2687005769E+01  -0.4121558039E-15   0.1528918989E+02   0.1528917660E+02   0.1497293651E-06   0.1528918310E+02   0.4220286845E-05   0.4220286146E-05   0.3057836619E+02   0.3057836634E+02   0.1576272900E-06   0.1418305065E-06
   0.2171434812E+01   0.3202576725E+01   0.1447112890E-15   0.1528917633E+02   0.1528918962E+02  -0.1143815209E-06   0.1528918309E+02   0.4220286160E-05   0.4220286860E-05   0.3057836617E+02   0.3057836606E+02  -0.1212976135E-06  -0.1074663443E-06
   0.2687005769E+01   0.2687005769E+01   0.7291274386E+00   0.1528918989E+02   0.1528917660E+02   0.1497300696E-06   0.1528918309E+02  -0.4220286849E-05  -0.4220286160E-05   0.3057836619E+02   0.3057836634E+02   0.1571447210E-06   0.1423145004E-06
   0.2171434812E+01   0.3202576725E+01   0.7291274386E+00   0.1528917632E+02   0.1528918962E+02  -0.1143823321E-06   0.1528918309E+02  -0.4220286159E-05  -0.4220286852E-05   0.3057836617E+02   0.3057836606E+02  -0.1193430238E-06  -0.1094225619E-06
     1     2     3     4     5     6     7     8
     2     9    10     3     6    11    12     7
 VARIABLES = X,Y,Z,S11,S22,S33,S12,S13,S23,SMISES,P1,P2,P3
 ZONE, T="0.7000D+01" F=FEPOINT, I=   12 J=    2 ET=BRICK
   0.0000000000E+00   0.0000000000E+00   0.0000000000E+00   0.1056455935E+02   0.2001380665E+02  -0.9482785033E-07   0.1454087518E+02  -0.3469486835E-05  -0.4775339763E-05   0.3057836618E+02   0.3057836609E+02  -0.9359153865E-07  -0.9606506665E-07
   0.1116791792E+01   0.1537132426E+01  -0.2085013045E-06   0.1056449527E+02   0.2001373257E+02  -0.6043025092E-04   0.1454088103E+02   0.3916933208E-12  -0.2832944512E-12   0.3057836784E+02   0.3057830103E+02  -0.6042937840E-04  -0.7319120247E-04
   0.5269156782E+00   0.1965702509E+01  -0.2085013042E-06   0.1056449527E+02   0.2001373256E+02  -0.6043025140E-04   0.1454088103E+02  -0.3865300047E-12   0.2867901545E-12   0.3057836783E+02   0.3057830102E+02  -0.6042681945E-04  -0.7319376237E-04
  -0.5898764889E+00   0.4285703554E+00   0.0000000000E+00   0.1056457206E+02   0.2001379439E+02   0.1301731494E-06   0.1454087924E+02  -0.3469487605E-05  -0.4775339197E-05   0.3057836619E+02   0.3057836632E+02   0.1381343425E-06   0.1222110556E-06
  -0.4686596607E-15   0.3405011746E-15   0.7291274386E+00   0.1056455934E+02   0.2001380664E+02  -0.9482867219E-07   0.1454087518E+02   0.3469486821E-05   0.4775339751E-05   0.3057836618E+02   0.3057836608E+02  -0.9798839191E-07  -0.9166987566E-07
   0.1116791792E+01   0.1537132426E+01   0.7291276471E+00   0.1056449527E+02   0.2001373256E+02  -0.6043025088E-04   0.1454088103E+02  -0.3873631645E-12   0.2813688029E-12   0.3057836783E+02   0.3057830102E+02  -0.6043043667E-04  -0.7319014411E-04
   0.5269156782E+00   0.1965702509E+01   0.7291276471E+00   0.1056449527E+02   0.2001373256E+02  -0.6043025115E-04   0.1454088102E+02   0.3907431393E-12  -0.2755979489E-12   0.3057836783E+02   0.3057830102E+02  -0.6043570423E-04  -0.7318487709E-04
  -0.5898764889E+00   0.4285703554E+00   0.7291274386E+00   0.1056457206E+02   0.2001379438E+02   0.1301722067E-06   0.1454087924E+02   0.3469487617E-05   0.4775339203E-05   0.3057836618E+02   0.3057836631E+02   0.1333125460E-06   0.1270309674E-06
   0.2233583959E+01   0.3074264579E+01  -0.4121558039E-15   0.1056457206E+02   0.2001379439E+02   0.1301731715E-06   0.1454087924E+02   0.3469487607E-05   0.4775339191E-05   0.3057836619E+02   0.3057836632E+02   0.1369249495E-06   0.1234204686E-06
   0.1643707470E+01   0.3502834934E+01   0.1447112890E-15   0.1056455934E+02   0.2001380664E+02  -0.9483041499E-07   0.1454087517E+02   0.3469486826E-05   0.4775339758E-05   0.3057836617E+02   0.3057836608E+02  -0.1030637925E-06  -0.8659796103E-07
   0.2233583959E+01   0.3074264579E+01   0.7291274386E+00   0.1056457206E+02   0.2001379438E+02   0.1301731301E-06   0.1454087924E+02  -0.3469487598E-05  -0.4775339197E-05   0.3057836619E+02   0.3057836632E+02   0.1224898599E-06   0.1378554984E-06
   0.1643707470E+01   0.3502834934E+01   0.7291274386E+00   0.1056455934E+02   0.2001380664E+02  -0.9482874020E-07   0.1454087517E+02  -0.3469486832E-05  -0.4775339771E-05   0.3057836617E+02   0.3057836608E+02  -0.8034293262E-07  -0.1093154604E-06
     1     2     3     4     5     6     7     8
     2     9    10     3     6    11    12     7
 VARIABLES = X,Y,Z,S11,S22,S33,S12,S13,S23,SMISES,P1,P2,P3
 ZONE, T="0.8000D+01" F=FEPOINT, I=   12 J=    2 ET=BRICK
   0.0000000000E+00   0.0000000000E+00   0.0000000000E+00   0.6302421436E+01   0.2427594465E+02  -0.4670121434E-07   0.1236920512E+02  -0.2659751220E-05  -0.5220056717E-05   0.3057836618E+02   0.3057836614E+02  -0.4960157596E-07  -0.4380174238E-07
   0.8625817445E+00   0.1692912500E+01  -0.2069457395E-06   0.6302356313E+01   0.2427587367E+02  -0.5941743249E-04   0.1236921217E+02   0.4228840277E-12  -0.2156633556E-12   0.3057836781E+02   0.3057830206E+02  -0.5941359366E-04  -0.7208041114E-04
   0.2129248497E+00   0.2023929222E+01  -0.2069457397E-06   0.6302356312E+01   0.2427587367E+02  -0.5941743137E-04   0.1236921217E+02  -0.4189813627E-12   0.2177075045E-12   0.3057836781E+02   0.3057830206E+02  -0.5941716227E-04  -0.7207684030E-04
  -0.6496573047E+00   0.3310169302E+00   0.0000000000E+00   0.6302432101E+01   0.2427593425E+02   0.8204384952E-07   0.1236921278E+02  -0.2659752060E-05  -0.5220056296E-05   0.3057836619E+02   0.3057836627E+02   0.6731337833E-07   0.9677343958E-07
  -0.5161558016E-15   0.2629945168E-15   0.7291274386E+00   0.6302421435E+01   0.2427594465E+02  -0.4670084678E-07   0.1236920512E+02   0.2659751211E-05   0.5220056712E-05   0.3057836618E+02   0.3057836613E+02  -0.3549068083E-07  -0.5791193077E-07
   0.8625817445E+00   0.1692912500E+01   0.7291276455E+00   0.6302356312E+01   0.2427587367E+02  -0.5941743255E-04   0.1236921217E+02  -0.4225664165E-12   0.2147664374E-12   0.3057836781E+02   0.3057830206E+02  -0.5942354936E-04  -0.7207045555E-04
   0.2129248497E+00   0.2023929222E+01   0.7291276455E+00   0.6302356312E+01   0.2427587367E+02  -0.5941743143E-04   0.1236921217E+02   0.4214632831E-12  -0.2092003598E-12   0.3057836780E+02   0.3057830206E+02  -0.5941450606E-04  -0.7207949662E-04
  -0.6496573047E+00   0.3310169302E+00   0.7291274386E+00   0.6302432101E+01   0.2427593425E+02   0.8204320046E-07   0.1236921278E+02   0.2659752067E-05   0.5220056297E-05   0.3057836618E+02   0.3057836626E+02   0.7959956788E-07   0.8448594164E-07
   0.1725163899E+01   0.3385824792E+01  -0.4121558039E-15   0.6302432102E+01   0.2427593425E+02   0.8204479574E-07   0.1236921278E+02   0.2659752057E-05   0.5220056282E-05   0.3057836619E+02   0.3057836627E+02   0.7118520966E-07   0.9290346910E-07
   0.1075506594E+01   0.3716841722E+01   0.1447112890E-15   0.6302421435E+01   0.2427594465E+02  -0.4670285997E-07   0.1236920512E+02   0.2659751217E-05   0.5220056723E-05   0.3057836618E+02   0.3057836613E+02  -0.5419881214E-07  -0.3920781184E-07
   0.1725163899E+01   0.3385824792E+01   0.7291274386E+00   0.6302432101E+01   0.2427593425E+02   0.8204496585E-07   0.1236921278E+02  -0.2659752053E-05  -0.5220056291E-05   0.3057836618E+02   0.3057836627E+02   0.8996164973E-07   0.7412737999E-07
   0.1075506594E+01   0.3716841722E+01   0.7291274386E+00   0.6302421434E+01   0.2427594465E+02  -0.4670167519E-07   0.1236920512E+02  -0.2659751218E-05  -0.5220056729E-05   0.3057836617E+02   0.3057836613E+02  -0.5119982262E-07  -0.4220442070E-07
     1     2     3     4     5     6     7     8
     2     9    10     3     6    11    12     7
 VARIABLES = X,Y,Z,S11,S22,S33,S12,S13,S23,SMISES,P1,P2,P3
 ZONE, T="0.9000D+01" F=FEPOINT, I=   12 J=    2 ET=BRICK
   0.0000000000E+00   0.0000000000E+00   0.0000000000E+00   0.2919970351E+01   0.2765839586E+02   0.1189471256E-07   0.8986751110E+01  -0.1799054556E-05  -0.5536922084E-05   0.3057836619E+02   0.3057836620E+02   0.1482563587E-08   0.2230596781E-07
   0.5871320721E+00   0.1807007452E+01  -0.2056478840E-06   0.2919903710E+01   0.2765832800E+02  -0.5860869325E-04   0.8986758660E+01   0.4455889960E-12  -0.1445394241E-12   0.3057836779E+02   0.3057830289E+02  -0.5860578205E-04  -0.7118689834E-04
  -0.1063088951E+00   0.2032320080E+01  -0.2056478842E-06   0.2919903710E+01   0.2765832799E+02  -0.5860869283E-04   0.8986758659E+01  -0.4418902762E-12   0.1481612420E-12   0.3057836778E+02   0.3057830289E+02  -0.5861454977E-04  -0.7117812979E-04
  -0.6934414017E+00   0.2253127696E+00   0.0000000000E+00   0.2919977965E+01   0.2765838826E+02   0.2344733806E-07   0.8986761572E+01  -0.1799055440E-05  -0.5536921802E-05   0.3057836618E+02   0.3057836621E+02   0.2596824143E-07   0.2092554649E-07
  -0.5509424738E-15   0.1790120612E-15   0.7291274386E+00   0.2919970351E+01   0.2765839585E+02   0.1189425463E-07   0.8986751109E+01   0.1799054549E-05   0.5536922078E-05   0.3057836618E+02   0.3057836619E+02   0.1287753425E-07   0.1091007950E-07
   0.5871320721E+00   0.1807007452E+01   0.7291276442E+00   0.2919903710E+01   0.2765832799E+02  -0.5860869328E-04   0.8986758659E+01  -0.4450612300E-12   0.1443246268E-12   0.3057836778E+02   0.3057830289E+02  -0.5860721715E-04  -0.7118546330E-04
  -0.1063088951E+00   0.2032320080E+01   0.7291276442E+00   0.2919903709E+01   0.2765832799E+02  -0.5860869300E-04   0.8986758658E+01   0.4430994721E-12  -0.1381126923E-12   0.3057836778E+02   0.3057830288E+02  -0.5860486437E-04  -0.7118781553E-04
  -0.6934414017E+00   0.2253127696E+00   0.7291274386E+00   0.2919977964E+01   0.2765838826E+02   0.2344695030E-07   0.8986761571E+01   0.1799055447E-05   0.5536921807E-05   0.3057836618E+02   0.3057836620E+02   0.1342744853E-07   0.3346555919E-07
   0.1174264579E+01   0.3614014762E+01  -0.4121558039E-15   0.2919977965E+01   0.2765838827E+02   0.2344780956E-07   0.8986761573E+01   0.1799055440E-05   0.5536921794E-05   0.3057836618E+02   0.3057836621E+02   0.2054784296E-07   0.2634686397E-07
   0.4808231769E+00   0.3839327532E+01   0.1447112890E-15   0.2919970351E+01   0.2765839585E+02   0.1189230132E-07   0.8986751108E+01   0.1799054552E-05   0.5536922088E-05   0.3057836618E+02   0.3057836619E+02   0.2910023150E-07  -0.5316543455E-08
   0.1174264579E+01   0.3614014762E+01   0.7291274386E+00   0.2919977965E+01   0.2765838826E+02   0.2344861288E-07   0.8986761572E+01  -0.1799055433E-05  -0.5536921794E-05   0.3057836618E+02   0.3057836620E+02   0.2559341625E-07   0.2130292466E-07
   0.4808231769E+00   0.3839327532E+01   0.7291274386E+00   0.2919970351E+01   0.2765839585E+02   0.1189395689E-07   0.8986751107E+01  -0.1799054553E-05  -0.5536922096E-05   0.3057836618E+02   0.3057836619E+02   0.8109705000E-08   0.1567732290E-07
     1     2     3     4     5     6     7     8
     2     9    10     3     6    11    12     7
 VARIABLES = X,Y,Z,S11,S22,S33,S12,S13,S23,SMISES,P1,P2,P3
 ZONE, T="0.1000D+02" F=FEPOINT, I=   12 J=    2 ET=BRICK
   0.0000000000E+00   0.0000000000E+00   0.0000000000E+00   0.7483039538E+00   0.2983006235E+02   0.5880261139E-07   0.4724611286E+01  -0.9067211846E-06  -0.5724815182E-05   0.3057836619E+02   0.3057836625E+02   0.5272399982E-07   0.6488033627E-07
   0.2972252591E+00   0.1876607883E+01  -0.2047404757E-06   0.7482354812E+00   0.2982999736E+02  -0.5807761371E-04   0.4724618619E+01   0.4576533517E-12  -0.7086490127E-13   0.3057836777E+02   0.3057830344E+02  -0.5808123412E-04  -0.7059101652E-04
  -0.4229249618E+00   0.1990668472E+01  -0.2047404756E-06   0.7482354811E+00   0.2982999736E+02  -0.5807761387E-04   0.4724618618E+01  -0.4524412678E-12   0.8219719812E-13   0.3057836777E+02   0.3057830343E+02  -0.5807260812E-04  -0.7059964284E-04
  -0.7201506699E+00   0.1140606608E+00   0.0000000000E+00   0.7483078486E+00   0.2983005828E+02  -0.2346256969E-07   0.4724623525E+01  -0.9067220923E-06  -0.5724815038E-05   0.3057836618E+02   0.3057836616E+02  -0.2643381189E-07  -0.2049219612E-07
  -0.5721631137E-15   0.9062173454E-16   0.7291274386E+00   0.7483039537E+00   0.2983006235E+02   0.5880295801E-07   0.4724611285E+01   0.9067211788E-06   0.5724815171E-05   0.3057836618E+02   0.3057836624E+02   0.8929669340E-07   0.2830833290E-07
   0.2972252591E+00   0.1876607883E+01   0.7291276433E+00   0.7482354811E+00   0.2982999736E+02  -0.5807761417E-04   0.4724618618E+01  -0.4570629689E-12   0.7341163006E-13   0.3057836777E+02   0.3057830343E+02  -0.5808181504E-04  -0.7059043652E-04
  -0.4229249618E+00   0.1990668472E+01   0.7291276433E+00   0.7482354810E+00   0.2982999736E+02  -0.5807761407E-04   0.4724618618E+01   0.4596253802E-12  -0.6088447437E-13   0.3057836777E+02   0.3057830343E+02  -0.5807477245E-04  -0.7059747891E-04
  -0.7201506699E+00   0.1140606608E+00   0.7291274386E+00   0.7483078485E+00   0.2983005828E+02  -0.2346293957E-07   0.4724623525E+01   0.9067221007E-06   0.5724815046E-05   0.3057836618E+02   0.3057836615E+02  -0.5243187850E-07   0.5505118210E-08
   0.5944509672E+00   0.3753215694E+01  -0.4121558039E-15   0.7483078487E+00   0.2983005829E+02  -0.2346283230E-07   0.4724623526E+01   0.9067221000E-06   0.5724815031E-05   0.3057836618E+02   0.3057836616E+02  -0.6353003814E-08  -0.4057356750E-07
  -0.1256997027E+00   0.3867276355E+01   0.1447112890E-15   0.7483039536E+00   0.2983006235E+02   0.5880179656E-07   0.4724611285E+01   0.9067211766E-06   0.5724815182E-05   0.3057836618E+02   0.3057836624E+02   0.4797969177E-07   0.6962299318E-07
   0.5944509672E+00   0.3753215694E+01   0.7291274386E+00   0.7483078486E+00   0.2983005828E+02  -0.2346156867E-07   0.4724623525E+01  -0.9067220835E-06  -0.5724815034E-05   0.3057836618E+02   0.3057836615E+02  -0.1818206712E-07  -0.2874195571E-07
  -0.1256997027E+00   0.3867276355E+01   0.7291274386E+00   0.7483039536E+00   0.2983006234E+02   0.5880195597E-07   0.4724611284E+01  -0.9067211829E-06  -0.5724815188E-05   0.3057836618E+02   0.3057836624E+02   0.4418166010E-07   0.7342137107E-07
     1     2     3     4     5     6     7     8
     2     9    10     3     6    11    12     7
 VARIABLES = X,Y,Z,S11,S22,S33,S12,S13,S23,SMISES,P1,P2,P3
 ZONE, T="0.1100D+02" F=FEPOINT, I=   12 J=    2 ET=BRICK
   0.0000000000E+00   0.0000000000E+00   0.0000000000E+00   0.7655327173E-07   0.3057836627E+02   0.7655379183E-07  -0.6442857220E-05   0.4583922840E-12  -0.5803003834E-05   0.3057836619E+02   0.3057836627E+02   0.8722706559E-07   0.6587963261E-07
  -0.2275834504E-06   0.1900000000E+01  -0.2049816702E-06  -0.7066515117E-04   0.3057830338E+02  -0.5813351079E-04   0.1066119914E-08   0.4677386141E-12  -0.3859649742E-15   0.3057836778E+02   0.3057830338E+02  -0.5813548954E-04  -0.7066317278E-04
  -0.7291272110E+00   0.1900000000E+01  -0.2049816702E-06  -0.7066515141E-04   0.3057830337E+02  -0.5813351102E-04   0.1066142589E-08  -0.4641936558E-12   0.9567687967E-14   0.3057836777E+02   0.3057830337E+02  -0.5813147197E-04  -0.7066719082E-04
  -0.7291274386E+00   0.1110223025E-15   0.0000000000E+00  -0.4121298987E-07   0.3057836614E+02  -0.4121248047E-07   0.6442857235E-05  -0.4624816953E-12  -0.5803003838E-05   0.3057836618E+02   0.3057836614E+02  -0.5041185343E-07  -0.3201398387E-07
  -0.5792951989E-15   0.3697785493E-31   0.7291274386E+00   0.7655292762E-07   0.3057836626E+02   0.7655345562E-07  -0.6442857214E-05  -0.4640018769E-12   0.5803003820E-05   0.3057836619E+02   0.3057836626E+02   0.6327318104E-07   0.8983283259E-07
  -0.2275834501E-06   0.1900000000E+01   0.7291276436E+00  -0.7066515155E-04   0.3057830337E+02  -0.5813351117E-04   0.1066143893E-08  -0.4628747483E-12  -0.7582263704E-15   0.3057836777E+02   0.3057830337E+02  -0.5813607774E-04  -0.7066258534E-04
  -0.7291272110E+00   0.1900000000E+01   0.7291276436E+00  -0.7066515086E-04   0.3057830337E+02  -0.5813351047E-04   0.1066140773E-08   0.4587614949E-12   0.1085724617E-13   0.3057836777E+02   0.3057830337E+02  -0.5813364025E-04  -0.7066502144E-04
  -0.7291274386E+00   0.2220446049E-15   0.7291274386E+00  -0.4121358254E-07   0.3057836613E+02  -0.4121306017E-07   0.6442857231E-05   0.4686925839E-12   0.5803003844E-05   0.3057836618E+02   0.3057836613E+02  -0.1918921882E-07  -0.6323778284E-07
  -0.1332267630E-14   0.3800000000E+01  -0.4121558039E-15  -0.4121267738E-07   0.3057836614E+02  -0.4121213712E-07   0.6442857203E-05   0.4669763256E-12   0.5803003823E-05   0.3057836618E+02   0.3057836614E+02  -0.4439324374E-07  -0.3803194348E-07
  -0.7291274386E+00   0.3800000000E+01   0.1447112890E-15   0.7655223931E-07   0.3057836626E+02   0.7655277704E-07  -0.6442857205E-05  -0.4639364784E-12   0.5803003835E-05   0.3057836618E+02   0.3057836626E+02   0.6667004244E-07   0.8643461035E-07
   0.2220446049E-15   0.3800000000E+01   0.7291274386E+00  -0.4121261781E-07   0.3057836614E+02  -0.4121209002E-07   0.6442857242E-05  -0.4570140096E-12  -0.5803003830E-05   0.3057836618E+02   0.3057836614E+02  -0.3814769749E-07  -0.4427737366E-07
  -0.7291274386E+00   0.3800000000E+01   0.7291274386E+00   0.7655204861E-07   0.3057836626E+02   0.7655257602E-07  -0.6442857207E-05   0.4656416193E-12  -0.5803003843E-05   0.3057836618E+02   0.3057836626E+02   0.7372855665E-07   0.7937570253E-07
     1     2     3     4     5     6     7     8
     2     9    10     3     6    11    12     7
