 VARIABLES = X,Y,Z,DU1,DU2,DU3,U1,U2,U3,S11,S22,S33,S12,S13,S23,ematrix,Vf
 ZONE, T="0.1000D+00" F=FEPOINT, I=   12 J=    2 ET=BRICK
   0.0000000000E+00  -0.1836309722E-03  -0.2041373890E-03   0.0000000000E+00  -0.6004977256E-04  -0.7105997658E-04   0.0000000000E+00  -0.1235811996E-03  -0.1330774124E-03  -0.3775960019E+00  -0.1225935912E+01  -0.1669382654E+01   0.2569904920E+00   0.2571680946E+00   0.2572647210E+00   0.0000000000E+00   0.0000000000E+00
   0.1001078836E+01   0.9247604679E-03   0.1267067473E-02   0.5000312768E-03   0.4500687279E-03   0.6262752787E-03   0.5788051483E-03   0.4746917400E-03   0.6407921941E-03   0.3234206439E+01   0.3329802558E+01   0.1061769583E+02   0.8618270984E+01   0.8618213709E+01   0.8618365736E+01   0.0000000000E+00   0.0000000000E+00
   0.1000232563E+01   0.1000759431E+01   0.4158435581E-03   0.7004053358E-04   0.4022320323E-03   0.1936864948E-03   0.1625229096E-03   0.3571990166E-03   0.2221570633E-03   0.3286320866E+01   0.3315113774E+01   0.1054996551E+02   0.8607337717E+01   0.8607198065E+01   0.8607275077E+01   0.0000000000E+00   0.0000000000E+00
   0.0000000000E+00   0.1000215445E+01  -0.2242275338E-03   0.0000000000E+00   0.7936491077E-04  -0.8194859229E-04   0.0000000000E+00   0.1360803121E-03  -0.1422789415E-03  -0.4256431385E+00  -0.1279077728E+01  -0.1776510508E+01   0.2629367737E+00   0.2627978551E+00   0.2630012833E+00   0.0000000000E+00   0.0000000000E+00
   0.0000000000E+00  -0.2009507352E-03   0.1000235909E+01   0.0000000000E+00  -0.6957852173E-04   0.9034778888E-04   0.0000000000E+00  -0.1313722134E-03   0.1455613837E-03  -0.3120304789E+00  -0.1178020307E+01  -0.1592550345E+01   0.2629153991E+00   0.2629404943E+00   0.2629746251E+00   0.0000000000E+00   0.0000000000E+00
   0.1000233641E+01   0.7195189472E-04   0.1000417485E+01   0.7060586713E-04   0.1780508454E-04   0.2262348147E-03   0.1630352370E-03   0.5414681018E-04   0.1912498185E-03   0.3147127491E+01   0.3132237234E+01   0.1045838256E+02   0.8607376557E+01   0.8607234256E+01   0.8607309713E+01   0.0000000000E+00   0.0000000000E+00
   0.9993858772E+00   0.9999142607E+00   0.9995704804E+00  -0.3595701592E-03  -0.2724646603E-04  -0.2030388438E-03  -0.2545526879E-03  -0.5849282656E-04  -0.2264807856E-03   0.3168199027E+01   0.3132347211E+01   0.1035236098E+02   0.8604445378E+01   0.8604263895E+01   0.8604346797E+01   0.0000000000E+00   0.0000000000E+00
   0.0000000000E+00   0.1000199910E+01   0.1000223207E+01   0.0000000000E+00   0.6959705737E-04   0.8197719550E-04   0.0000000000E+00   0.1303131834E-03   0.1412294861E-03  -0.3422938473E+00  -0.1184884191E+01  -0.1714368496E+01   0.2645648802E+00   0.2644051346E+00   0.2645191330E+00   0.0000000000E+00   0.0000000000E+00
   0.2001000000E+01   0.3641553658E-03   0.1068479323E-02   0.1000000000E-03   0.1156993901E-03   0.4784790706E-03   0.9000000000E-03   0.2484559757E-03   0.5900002527E-03  -0.1990308826E+01  -0.1084555007E+01   0.1390501682E+02   0.1695025372E+02   0.1694999441E+02   0.1695007413E+02   0.0000000000E+00   0.0000000000E+00
   0.2001000000E+01   0.9996350056E+00  -0.6192239075E-03   0.1000000000E-03  -0.1169675432E-03  -0.3744177541E-03   0.9000000000E-03  -0.2480268988E-03  -0.2448061534E-03  -0.1804712265E+01  -0.9559248604E+00   0.1399137803E+02   0.1694393873E+02   0.1694364355E+02   0.1694378358E+02   0.0000000000E+00   0.0000000000E+00
   0.2001000000E+01  -0.1328985326E-02   0.9989310038E+00   0.1000000000E-03  -0.7379300227E-03  -0.4795398576E-03   0.9000000000E-03  -0.5910553037E-03  -0.5894563578E-03  -0.1755422257E+01  -0.1013481240E+01   0.1406269835E+02   0.1694400556E+02   0.1694361581E+02   0.1694379613E+02   0.0000000000E+00   0.0000000000E+00
   0.2001000000E+01   0.9979582424E+00   0.9972472378E+00   0.1000000000E-03  -0.9658542553E-03  -0.1330153363E-02   0.9000000000E-03  -0.1075903336E-02  -0.1422608838E-02  -0.1592712631E+01  -0.8448368741E+00   0.1414357977E+02   0.1694230241E+02   0.1694180982E+02   0.1694212847E+02   0.0000000000E+00   0.0000000000E+00
     1     2     3     4     5     6     7     8
     2     9    10     3     6    11    12     7
 VARIABLES = X,Y,Z,DU1,DU2,DU3,U1,U2,U3,S11,S22,S33,S12,S13,S23,ematrix,Vf
 ZONE, T="0.2000D+00" F=FEPOINT, I=   12 J=    2 ET=BRICK
   0.0000000000E+00                NaN                NaN   0.0000000000E+00                NaN                NaN   0.0000000000E+00                NaN                NaN                NaN                NaN                NaN                NaN                NaN                NaN   0.0000000000E+00   0.0000000000E+00
                NaN                NaN                NaN                NaN                NaN                NaN                NaN                NaN                NaN                NaN                NaN                NaN                NaN                NaN                NaN   0.0000000000E+00   0.0000000000E+00
                NaN                NaN                NaN                NaN                NaN                NaN                NaN                NaN                NaN                NaN                NaN                NaN                NaN                NaN                NaN   0.0000000000E+00   0.0000000000E+00
   0.0000000000E+00                NaN                NaN   0.0000000000E+00                NaN                NaN   0.0000000000E+00                NaN                NaN                NaN                NaN                NaN                NaN                NaN                NaN   0.0000000000E+00   0.0000000000E+00
   0.0000000000E+00                NaN                NaN   0.0000000000E+00                NaN                NaN   0.0000000000E+00                NaN                NaN                NaN                NaN                NaN                NaN                NaN                NaN   0.0000000000E+00   0.0000000000E+00
                NaN                NaN                NaN                NaN                NaN                NaN                NaN                NaN                NaN                NaN                NaN                NaN                NaN                NaN                NaN   0.0000000000E+00   0.0000000000E+00
                NaN                NaN                NaN                NaN                NaN                NaN                NaN                NaN                NaN                NaN                NaN                NaN                NaN                NaN                NaN   0.0000000000E+00   0.0000000000E+00
   0.0000000000E+00                NaN                NaN   0.0000000000E+00                NaN                NaN   0.0000000000E+00                NaN                NaN                NaN                NaN                NaN                NaN                NaN                NaN   0.0000000000E+00   0.0000000000E+00
   0.2002000000E+01                NaN                NaN   0.1000000000E-03                NaN                NaN   0.1900000000E-02                NaN                NaN                NaN                NaN                NaN                NaN                NaN                NaN   0.0000000000E+00   0.0000000000E+00
   0.2002000000E+01                NaN                NaN   0.1000000000E-03                NaN                NaN   0.1900000000E-02                NaN                NaN                NaN                NaN                NaN                NaN                NaN                NaN   0.0000000000E+00   0.0000000000E+00
   0.2002000000E+01                NaN                NaN   0.1000000000E-03                NaN                NaN   0.1900000000E-02                NaN                NaN                NaN                NaN                NaN                NaN                NaN                NaN   0.0000000000E+00   0.0000000000E+00
   0.2002000000E+01                NaN                NaN   0.1000000000E-03                NaN                NaN   0.1900000000E-02                NaN                NaN                NaN                NaN                NaN                NaN                NaN                NaN   0.0000000000E+00   0.0000000000E+00
     1     2     3     4     5     6     7     8
     2     9    10     3     6    11    12     7
 VARIABLES = X,Y,Z,DU1,DU2,DU3,U1,U2,U3,S11,S22,S33,S12,S13,S23,ematrix,Vf
 ZONE, T="0.3000D+00" F=FEPOINT, I=   12 J=    2 ET=BRICK
   0.0000000000E+00                NaN                NaN   0.0000000000E+00                NaN                NaN   0.0000000000E+00                NaN                NaN                NaN                NaN                NaN                NaN                NaN                NaN   0.0000000000E+00   0.0000000000E+00
                NaN                NaN                NaN                NaN                NaN                NaN                NaN                NaN                NaN                NaN                NaN                NaN                NaN                NaN                NaN   0.0000000000E+00   0.0000000000E+00
                NaN                NaN                NaN                NaN                NaN                NaN                NaN                NaN                NaN                NaN                NaN                NaN                NaN                NaN                NaN   0.0000000000E+00   0.0000000000E+00
   0.0000000000E+00                NaN                NaN   0.0000000000E+00                NaN                NaN   0.0000000000E+00                NaN                NaN                NaN                NaN                NaN                NaN                NaN                NaN   0.0000000000E+00   0.0000000000E+00
   0.0000000000E+00                NaN                NaN   0.0000000000E+00                NaN                NaN   0.0000000000E+00                NaN                NaN                NaN                NaN                NaN                NaN                NaN                NaN   0.0000000000E+00   0.0000000000E+00
                NaN                NaN                NaN                NaN                NaN                NaN                NaN                NaN                NaN                NaN                NaN                NaN                NaN                NaN                NaN   0.0000000000E+00   0.0000000000E+00
                NaN                NaN                NaN                NaN                NaN                NaN                NaN                NaN                NaN                NaN                NaN                NaN                NaN                NaN                NaN   0.0000000000E+00   0.0000000000E+00
   0.0000000000E+00                NaN                NaN   0.0000000000E+00                NaN                NaN   0.0000000000E+00                NaN                NaN                NaN                NaN                NaN                NaN                NaN                NaN   0.0000000000E+00   0.0000000000E+00
   0.2003000000E+01                NaN                NaN   0.1000000000E-03                NaN                NaN   0.2900000000E-02                NaN                NaN                NaN                NaN                NaN                NaN                NaN                NaN   0.0000000000E+00   0.0000000000E+00
   0.2003000000E+01                NaN                NaN   0.1000000000E-03                NaN                NaN   0.2900000000E-02                NaN                NaN                NaN                NaN                NaN                NaN                NaN                NaN   0.0000000000E+00   0.0000000000E+00
   0.2003000000E+01                NaN                NaN   0.1000000000E-03                NaN                NaN   0.2900000000E-02                NaN                NaN                NaN                NaN                NaN                NaN                NaN                NaN   0.0000000000E+00   0.0000000000E+00
   0.2003000000E+01                NaN                NaN   0.1000000000E-03                NaN                NaN   0.2900000000E-02                NaN                NaN                NaN                NaN                NaN                NaN                NaN                NaN   0.0000000000E+00   0.0000000000E+00
     1     2     3     4     5     6     7     8
     2     9    10     3     6    11    12     7
 VARIABLES = X,Y,Z,DU1,DU2,DU3,U1,U2,U3,S11,S22,S33,S12,S13,S23,ematrix,Vf
 ZONE, T="0.4000D+00" F=FEPOINT, I=   12 J=    2 ET=BRICK
   0.0000000000E+00                NaN                NaN   0.0000000000E+00                NaN                NaN   0.0000000000E+00                NaN                NaN                NaN                NaN                NaN                NaN                NaN                NaN   0.0000000000E+00   0.0000000000E+00
                NaN                NaN                NaN                NaN                NaN                NaN                NaN                NaN                NaN                NaN                NaN                NaN                NaN                NaN                NaN   0.0000000000E+00   0.0000000000E+00
                NaN                NaN                NaN                NaN                NaN                NaN                NaN                NaN                NaN                NaN                NaN                NaN                NaN                NaN                NaN   0.0000000000E+00   0.0000000000E+00
   0.0000000000E+00                NaN                NaN   0.0000000000E+00                NaN                NaN   0.0000000000E+00                NaN                NaN                NaN                NaN                NaN                NaN                NaN                NaN   0.0000000000E+00   0.0000000000E+00
   0.0000000000E+00                NaN                NaN   0.0000000000E+00                NaN                NaN   0.0000000000E+00                NaN                NaN                NaN                NaN                NaN                NaN                NaN                NaN   0.0000000000E+00   0.0000000000E+00
                NaN                NaN                NaN                NaN                NaN                NaN                NaN                NaN                NaN                NaN                NaN                NaN                NaN                NaN                NaN   0.0000000000E+00   0.0000000000E+00
                NaN                NaN                NaN                NaN                NaN                NaN                NaN                NaN                NaN                NaN                NaN                NaN                NaN                NaN                NaN   0.0000000000E+00   0.0000000000E+00
   0.0000000000E+00                NaN                NaN   0.0000000000E+00                NaN                NaN   0.0000000000E+00                NaN                NaN                NaN                NaN                NaN                NaN                NaN                NaN   0.0000000000E+00   0.0000000000E+00
   0.2004000000E+01                NaN                NaN   0.1000000000E-03                NaN                NaN   0.3900000000E-02                NaN                NaN                NaN                NaN                NaN                NaN                NaN                NaN   0.0000000000E+00   0.0000000000E+00
   0.2004000000E+01                NaN                NaN   0.1000000000E-03                NaN                NaN   0.3900000000E-02                NaN                NaN                NaN                NaN                NaN                NaN                NaN                NaN   0.0000000000E+00   0.0000000000E+00
   0.2004000000E+01                NaN                NaN   0.1000000000E-03                NaN                NaN   0.3900000000E-02                NaN                NaN                NaN                NaN                NaN                NaN                NaN                NaN   0.0000000000E+00   0.0000000000E+00
   0.2004000000E+01                NaN                NaN   0.1000000000E-03                NaN                NaN   0.3900000000E-02                NaN                NaN                NaN                NaN                NaN                NaN                NaN                NaN   0.0000000000E+00   0.0000000000E+00
     1     2     3     4     5     6     7     8
     2     9    10     3     6    11    12     7
 VARIABLES = X,Y,Z,DU1,DU2,DU3,U1,U2,U3,S11,S22,S33,S12,S13,S23,ematrix,Vf
 ZONE, T="0.5000D+00" F=FEPOINT, I=   12 J=    2 ET=BRICK
   0.0000000000E+00                NaN                NaN   0.0000000000E+00                NaN                NaN   0.0000000000E+00                NaN                NaN                NaN                NaN                NaN                NaN                NaN                NaN   0.0000000000E+00   0.0000000000E+00
                NaN                NaN                NaN                NaN                NaN                NaN                NaN                NaN                NaN                NaN                NaN                NaN                NaN                NaN                NaN   0.0000000000E+00   0.0000000000E+00
                NaN                NaN                NaN                NaN                NaN                NaN                NaN                NaN                NaN                NaN                NaN                NaN                NaN                NaN                NaN   0.0000000000E+00   0.0000000000E+00
   0.0000000000E+00                NaN                NaN   0.0000000000E+00                NaN                NaN   0.0000000000E+00                NaN                NaN                NaN                NaN                NaN                NaN                NaN                NaN   0.0000000000E+00   0.0000000000E+00
   0.0000000000E+00                NaN                NaN   0.0000000000E+00                NaN                NaN   0.0000000000E+00                NaN                NaN                NaN                NaN                NaN                NaN                NaN                NaN   0.0000000000E+00   0.0000000000E+00
                NaN                NaN                NaN                NaN                NaN                NaN                NaN                NaN                NaN                NaN                NaN                NaN                NaN                NaN                NaN   0.0000000000E+00   0.0000000000E+00
                NaN                NaN                NaN                NaN                NaN                NaN                NaN                NaN                NaN                NaN                NaN                NaN                NaN                NaN                NaN   0.0000000000E+00   0.0000000000E+00
   0.0000000000E+00                NaN                NaN   0.0000000000E+00                NaN                NaN   0.0000000000E+00                NaN                NaN                NaN                NaN                NaN                NaN                NaN                NaN   0.0000000000E+00   0.0000000000E+00
   0.2005000000E+01                NaN                NaN   0.1000000000E-03                NaN                NaN   0.4900000000E-02                NaN                NaN                NaN                NaN                NaN                NaN                NaN                NaN   0.0000000000E+00   0.0000000000E+00
   0.2005000000E+01                NaN                NaN   0.1000000000E-03                NaN                NaN   0.4900000000E-02                NaN                NaN                NaN                NaN                NaN                NaN                NaN                NaN   0.0000000000E+00   0.0000000000E+00
   0.2005000000E+01                NaN                NaN   0.1000000000E-03                NaN                NaN   0.4900000000E-02                NaN                NaN                NaN                NaN                NaN                NaN                NaN                NaN   0.0000000000E+00   0.0000000000E+00
   0.2005000000E+01                NaN                NaN   0.1000000000E-03                NaN                NaN   0.4900000000E-02                NaN                NaN                NaN                NaN                NaN                NaN                NaN                NaN   0.0000000000E+00   0.0000000000E+00
     1     2     3     4     5     6     7     8
     2     9    10     3     6    11    12     7
 VARIABLES = X,Y,Z,DU1,DU2,DU3,U1,U2,U3,S11,S22,S33,S12,S13,S23,ematrix,Vf
 ZONE, T="0.6000D+00" F=FEPOINT, I=   12 J=    2 ET=BRICK
   0.0000000000E+00                NaN                NaN   0.0000000000E+00                NaN                NaN   0.0000000000E+00                NaN                NaN                NaN                NaN                NaN                NaN                NaN                NaN   0.0000000000E+00   0.0000000000E+00
                NaN                NaN                NaN                NaN                NaN                NaN                NaN                NaN                NaN                NaN                NaN                NaN                NaN                NaN                NaN   0.0000000000E+00   0.0000000000E+00
                NaN                NaN                NaN                NaN                NaN                NaN                NaN                NaN                NaN                NaN                NaN                NaN                NaN                NaN                NaN   0.0000000000E+00   0.0000000000E+00
   0.0000000000E+00                NaN                NaN   0.0000000000E+00                NaN                NaN   0.0000000000E+00                NaN                NaN                NaN                NaN                NaN                NaN                NaN                NaN   0.0000000000E+00   0.0000000000E+00
   0.0000000000E+00                NaN                NaN   0.0000000000E+00                NaN                NaN   0.0000000000E+00                NaN                NaN                NaN                NaN                NaN                NaN                NaN                NaN   0.0000000000E+00   0.0000000000E+00
                NaN                NaN                NaN                NaN                NaN                NaN                NaN                NaN                NaN                NaN                NaN                NaN                NaN                NaN                NaN   0.0000000000E+00   0.0000000000E+00
                NaN                NaN                NaN                NaN                NaN                NaN                NaN                NaN                NaN                NaN                NaN                NaN                NaN                NaN                NaN   0.0000000000E+00   0.0000000000E+00
   0.0000000000E+00                NaN                NaN   0.0000000000E+00                NaN                NaN   0.0000000000E+00                NaN                NaN                NaN                NaN                NaN                NaN                NaN                NaN   0.0000000000E+00   0.0000000000E+00
   0.2006000000E+01                NaN                NaN   0.1000000000E-03                NaN                NaN   0.5900000000E-02                NaN                NaN                NaN                NaN                NaN                NaN                NaN                NaN   0.0000000000E+00   0.0000000000E+00
   0.2006000000E+01                NaN                NaN   0.1000000000E-03                NaN                NaN   0.5900000000E-02                NaN                NaN                NaN                NaN                NaN                NaN                NaN                NaN   0.0000000000E+00   0.0000000000E+00
   0.2006000000E+01                NaN                NaN   0.1000000000E-03                NaN                NaN   0.5900000000E-02                NaN                NaN                NaN                NaN                NaN                NaN                NaN                NaN   0.0000000000E+00   0.0000000000E+00
   0.2006000000E+01                NaN                NaN   0.1000000000E-03                NaN                NaN   0.5900000000E-02                NaN                NaN                NaN                NaN                NaN                NaN                NaN                NaN   0.0000000000E+00   0.0000000000E+00
     1     2     3     4     5     6     7     8
     2     9    10     3     6    11    12     7
 VARIABLES = X,Y,Z,DU1,DU2,DU3,U1,U2,U3,S11,S22,S33,S12,S13,S23,ematrix,Vf
 ZONE, T="0.7000D+00" F=FEPOINT, I=   12 J=    2 ET=BRICK
   0.0000000000E+00                NaN                NaN   0.0000000000E+00                NaN                NaN   0.0000000000E+00                NaN                NaN                NaN                NaN                NaN                NaN                NaN                NaN   0.0000000000E+00   0.0000000000E+00
                NaN                NaN                NaN                NaN                NaN                NaN                NaN                NaN                NaN                NaN                NaN                NaN                NaN                NaN                NaN   0.0000000000E+00   0.0000000000E+00
                NaN                NaN                NaN                NaN                NaN                NaN                NaN                NaN                NaN                NaN                NaN                NaN                NaN                NaN                NaN   0.0000000000E+00   0.0000000000E+00
   0.0000000000E+00                NaN                NaN   0.0000000000E+00                NaN                NaN   0.0000000000E+00                NaN                NaN                NaN                NaN                NaN                NaN                NaN                NaN   0.0000000000E+00   0.0000000000E+00
   0.0000000000E+00                NaN                NaN   0.0000000000E+00                NaN                NaN   0.0000000000E+00                NaN                NaN                NaN                NaN                NaN                NaN                NaN                NaN   0.0000000000E+00   0.0000000000E+00
                NaN                NaN                NaN                NaN                NaN                NaN                NaN                NaN                NaN                NaN                NaN                NaN                NaN                NaN                NaN   0.0000000000E+00   0.0000000000E+00
                NaN                NaN                NaN                NaN                NaN                NaN                NaN                NaN                NaN                NaN                NaN                NaN                NaN                NaN                NaN   0.0000000000E+00   0.0000000000E+00
   0.0000000000E+00                NaN                NaN   0.0000000000E+00                NaN                NaN   0.0000000000E+00                NaN                NaN                NaN                NaN                NaN                NaN                NaN                NaN   0.0000000000E+00   0.0000000000E+00
   0.2007000000E+01                NaN                NaN   0.1000000000E-03                NaN                NaN   0.6900000000E-02                NaN                NaN                NaN                NaN                NaN                NaN                NaN                NaN   0.0000000000E+00   0.0000000000E+00
   0.2007000000E+01                NaN                NaN   0.1000000000E-03                NaN                NaN   0.6900000000E-02                NaN                NaN                NaN                NaN                NaN                NaN                NaN                NaN   0.0000000000E+00   0.0000000000E+00
   0.2007000000E+01                NaN                NaN   0.1000000000E-03                NaN                NaN   0.6900000000E-02                NaN                NaN                NaN                NaN                NaN                NaN                NaN                NaN   0.0000000000E+00   0.0000000000E+00
   0.2007000000E+01                NaN                NaN   0.1000000000E-03                NaN                NaN   0.6900000000E-02                NaN                NaN                NaN                NaN                NaN                NaN                NaN                NaN   0.0000000000E+00   0.0000000000E+00
     1     2     3     4     5     6     7     8
     2     9    10     3     6    11    12     7
 VARIABLES = X,Y,Z,DU1,DU2,DU3,U1,U2,U3,S11,S22,S33,S12,S13,S23,ematrix,Vf
 ZONE, T="0.8000D+00" F=FEPOINT, I=   12 J=    2 ET=BRICK
   0.0000000000E+00                NaN                NaN   0.0000000000E+00                NaN                NaN   0.0000000000E+00                NaN                NaN                NaN                NaN                NaN                NaN                NaN                NaN   0.0000000000E+00   0.0000000000E+00
                NaN                NaN                NaN                NaN                NaN                NaN                NaN                NaN                NaN                NaN                NaN                NaN                NaN                NaN                NaN   0.0000000000E+00   0.0000000000E+00
                NaN                NaN                NaN                NaN                NaN                NaN                NaN                NaN                NaN                NaN                NaN                NaN                NaN                NaN                NaN   0.0000000000E+00   0.0000000000E+00
   0.0000000000E+00                NaN                NaN   0.0000000000E+00                NaN                NaN   0.0000000000E+00                NaN                NaN                NaN                NaN                NaN                NaN                NaN                NaN   0.0000000000E+00   0.0000000000E+00
   0.0000000000E+00                NaN                NaN   0.0000000000E+00                NaN                NaN   0.0000000000E+00                NaN                NaN                NaN                NaN                NaN                NaN                NaN                NaN   0.0000000000E+00   0.0000000000E+00
                NaN                NaN                NaN                NaN                NaN                NaN                NaN                NaN                NaN                NaN                NaN                NaN                NaN                NaN                NaN   0.0000000000E+00   0.0000000000E+00
                NaN                NaN                NaN                NaN                NaN                NaN                NaN                NaN                NaN                NaN                NaN                NaN                NaN                NaN                NaN   0.0000000000E+00   0.0000000000E+00
   0.0000000000E+00                NaN                NaN   0.0000000000E+00                NaN                NaN   0.0000000000E+00                NaN                NaN                NaN                NaN                NaN                NaN                NaN                NaN   0.0000000000E+00   0.0000000000E+00
   0.2008000000E+01                NaN                NaN   0.1000000000E-03                NaN                NaN   0.7900000000E-02                NaN                NaN                NaN                NaN                NaN                NaN                NaN                NaN   0.0000000000E+00   0.0000000000E+00
   0.2008000000E+01                NaN                NaN   0.1000000000E-03                NaN                NaN   0.7900000000E-02                NaN                NaN                NaN                NaN                NaN                NaN                NaN                NaN   0.0000000000E+00   0.0000000000E+00
   0.2008000000E+01                NaN                NaN   0.1000000000E-03                NaN                NaN   0.7900000000E-02                NaN                NaN                NaN                NaN                NaN                NaN                NaN                NaN   0.0000000000E+00   0.0000000000E+00
   0.2008000000E+01                NaN                NaN   0.1000000000E-03                NaN                NaN   0.7900000000E-02                NaN                NaN                NaN                NaN                NaN                NaN                NaN                NaN   0.0000000000E+00   0.0000000000E+00
     1     2     3     4     5     6     7     8
     2     9    10     3     6    11    12     7
 VARIABLES = X,Y,Z,DU1,DU2,DU3,U1,U2,U3,S11,S22,S33,S12,S13,S23,ematrix,Vf
 ZONE, T="0.9000D+00" F=FEPOINT, I=   12 J=    2 ET=BRICK
   0.0000000000E+00                NaN                NaN   0.0000000000E+00                NaN                NaN   0.0000000000E+00                NaN                NaN                NaN                NaN                NaN                NaN                NaN                NaN   0.0000000000E+00   0.0000000000E+00
                NaN                NaN                NaN                NaN                NaN                NaN                NaN                NaN                NaN                NaN                NaN                NaN                NaN                NaN                NaN   0.0000000000E+00   0.0000000000E+00
                NaN                NaN                NaN                NaN                NaN                NaN                NaN                NaN                NaN                NaN                NaN                NaN                NaN                NaN                NaN   0.0000000000E+00   0.0000000000E+00
   0.0000000000E+00                NaN                NaN   0.0000000000E+00                NaN                NaN   0.0000000000E+00                NaN                NaN                NaN                NaN                NaN                NaN                NaN                NaN   0.0000000000E+00   0.0000000000E+00
   0.0000000000E+00                NaN                NaN   0.0000000000E+00                NaN                NaN   0.0000000000E+00                NaN                NaN                NaN                NaN                NaN                NaN                NaN                NaN   0.0000000000E+00   0.0000000000E+00
                NaN                NaN                NaN                NaN                NaN                NaN                NaN                NaN                NaN                NaN                NaN                NaN                NaN                NaN                NaN   0.0000000000E+00   0.0000000000E+00
                NaN                NaN                NaN                NaN                NaN                NaN                NaN                NaN                NaN                NaN                NaN                NaN                NaN                NaN                NaN   0.0000000000E+00   0.0000000000E+00
   0.0000000000E+00                NaN                NaN   0.0000000000E+00                NaN                NaN   0.0000000000E+00                NaN                NaN                NaN                NaN                NaN                NaN                NaN                NaN   0.0000000000E+00   0.0000000000E+00
   0.2009000000E+01                NaN                NaN   0.1000000000E-03                NaN                NaN   0.8900000000E-02                NaN                NaN                NaN                NaN                NaN                NaN                NaN                NaN   0.0000000000E+00   0.0000000000E+00
   0.2009000000E+01                NaN                NaN   0.1000000000E-03                NaN                NaN   0.8900000000E-02                NaN                NaN                NaN                NaN                NaN                NaN                NaN                NaN   0.0000000000E+00   0.0000000000E+00
   0.2009000000E+01                NaN                NaN   0.1000000000E-03                NaN                NaN   0.8900000000E-02                NaN                NaN                NaN                NaN                NaN                NaN                NaN                NaN   0.0000000000E+00   0.0000000000E+00
   0.2009000000E+01                NaN                NaN   0.1000000000E-03                NaN                NaN   0.8900000000E-02                NaN                NaN                NaN                NaN                NaN                NaN                NaN                NaN   0.0000000000E+00   0.0000000000E+00
     1     2     3     4     5     6     7     8
     2     9    10     3     6    11    12     7
 VARIABLES = X,Y,Z,DU1,DU2,DU3,U1,U2,U3,S11,S22,S33,S12,S13,S23,ematrix,Vf
 ZONE, T="0.1000D+01" F=FEPOINT, I=   12 J=    2 ET=BRICK
   0.0000000000E+00                NaN                NaN   0.0000000000E+00                NaN                NaN   0.0000000000E+00                NaN                NaN                NaN                NaN                NaN                NaN                NaN                NaN   0.0000000000E+00   0.0000000000E+00
                NaN                NaN                NaN                NaN                NaN                NaN                NaN                NaN                NaN                NaN                NaN                NaN                NaN                NaN                NaN   0.0000000000E+00   0.0000000000E+00
                NaN                NaN                NaN                NaN                NaN                NaN                NaN                NaN                NaN                NaN                NaN                NaN                NaN                NaN                NaN   0.0000000000E+00   0.0000000000E+00
   0.0000000000E+00                NaN                NaN   0.0000000000E+00                NaN                NaN   0.0000000000E+00                NaN                NaN                NaN                NaN                NaN                NaN                NaN                NaN   0.0000000000E+00   0.0000000000E+00
   0.0000000000E+00                NaN                NaN   0.0000000000E+00                NaN                NaN   0.0000000000E+00                NaN                NaN                NaN                NaN                NaN                NaN                NaN                NaN   0.0000000000E+00   0.0000000000E+00
                NaN                NaN                NaN                NaN                NaN                NaN                NaN                NaN                NaN                NaN                NaN                NaN                NaN                NaN                NaN   0.0000000000E+00   0.0000000000E+00
                NaN                NaN                NaN                NaN                NaN                NaN                NaN                NaN                NaN                NaN                NaN                NaN                NaN                NaN                NaN   0.0000000000E+00   0.0000000000E+00
   0.0000000000E+00                NaN                NaN   0.0000000000E+00                NaN                NaN   0.0000000000E+00                NaN                NaN                NaN                NaN                NaN                NaN                NaN                NaN   0.0000000000E+00   0.0000000000E+00
   0.2010000000E+01                NaN                NaN   0.1000000000E-03                NaN                NaN   0.9900000000E-02                NaN                NaN                NaN                NaN                NaN                NaN                NaN                NaN   0.0000000000E+00   0.0000000000E+00
   0.2010000000E+01                NaN                NaN   0.1000000000E-03                NaN                NaN   0.9900000000E-02                NaN                NaN                NaN                NaN                NaN                NaN                NaN                NaN   0.0000000000E+00   0.0000000000E+00
   0.2010000000E+01                NaN                NaN   0.1000000000E-03                NaN                NaN   0.9900000000E-02                NaN                NaN                NaN                NaN                NaN                NaN                NaN                NaN   0.0000000000E+00   0.0000000000E+00
   0.2010000000E+01                NaN                NaN   0.1000000000E-03                NaN                NaN   0.9900000000E-02                NaN                NaN                NaN                NaN                NaN                NaN                NaN                NaN   0.0000000000E+00   0.0000000000E+00
     1     2     3     4     5     6     7     8
     2     9    10     3     6    11    12     7
 VARIABLES = X,Y,Z,DU1,DU2,DU3,U1,U2,U3,S11,S22,S33,S12,S13,S23,ematrix,Vf
 ZONE, T="0.1100D+01" F=FEPOINT, I=   12 J=    2 ET=BRICK
   0.0000000000E+00                NaN                NaN   0.0000000000E+00                NaN                NaN   0.0000000000E+00                NaN                NaN                NaN                NaN                NaN                NaN                NaN                NaN   0.0000000000E+00   0.0000000000E+00
                NaN                NaN                NaN                NaN                NaN                NaN                NaN                NaN                NaN                NaN                NaN                NaN                NaN                NaN                NaN   0.0000000000E+00   0.0000000000E+00
                NaN                NaN                NaN                NaN                NaN                NaN                NaN                NaN                NaN                NaN                NaN                NaN                NaN                NaN                NaN   0.0000000000E+00   0.0000000000E+00
   0.0000000000E+00                NaN                NaN   0.0000000000E+00                NaN                NaN   0.0000000000E+00                NaN                NaN                NaN                NaN                NaN                NaN                NaN                NaN   0.0000000000E+00   0.0000000000E+00
   0.0000000000E+00                NaN                NaN   0.0000000000E+00                NaN                NaN   0.0000000000E+00                NaN                NaN                NaN                NaN                NaN                NaN                NaN                NaN   0.0000000000E+00   0.0000000000E+00
                NaN                NaN                NaN                NaN                NaN                NaN                NaN                NaN                NaN                NaN                NaN                NaN                NaN                NaN                NaN   0.0000000000E+00   0.0000000000E+00
                NaN                NaN                NaN                NaN                NaN                NaN                NaN                NaN                NaN                NaN                NaN                NaN                NaN                NaN                NaN   0.0000000000E+00   0.0000000000E+00
   0.0000000000E+00                NaN                NaN   0.0000000000E+00                NaN                NaN   0.0000000000E+00                NaN                NaN                NaN                NaN                NaN                NaN                NaN                NaN   0.0000000000E+00   0.0000000000E+00
   0.2011000000E+01                NaN                NaN   0.1000000000E-03                NaN                NaN   0.1090000000E-01                NaN                NaN                NaN                NaN                NaN                NaN                NaN                NaN   0.0000000000E+00   0.0000000000E+00
   0.2011000000E+01                NaN                NaN   0.1000000000E-03                NaN                NaN   0.1090000000E-01                NaN                NaN                NaN                NaN                NaN                NaN                NaN                NaN   0.0000000000E+00   0.0000000000E+00
   0.2011000000E+01                NaN                NaN   0.1000000000E-03                NaN                NaN   0.1090000000E-01                NaN                NaN                NaN                NaN                NaN                NaN                NaN                NaN   0.0000000000E+00   0.0000000000E+00
   0.2011000000E+01                NaN                NaN   0.1000000000E-03                NaN                NaN   0.1090000000E-01                NaN                NaN                NaN                NaN                NaN                NaN                NaN                NaN   0.0000000000E+00   0.0000000000E+00
     1     2     3     4     5     6     7     8
     2     9    10     3     6    11    12     7
 VARIABLES = X,Y,Z,DU1,DU2,DU3,U1,U2,U3,S11,S22,S33,S12,S13,S23,ematrix,Vf
 ZONE, T="0.1200D+01" F=FEPOINT, I=   12 J=    2 ET=BRICK
   0.0000000000E+00                NaN                NaN   0.0000000000E+00                NaN                NaN   0.0000000000E+00                NaN                NaN                NaN                NaN                NaN                NaN                NaN                NaN   0.0000000000E+00   0.0000000000E+00
                NaN                NaN                NaN                NaN                NaN                NaN                NaN                NaN                NaN                NaN                NaN                NaN                NaN                NaN                NaN   0.0000000000E+00   0.0000000000E+00
                NaN                NaN                NaN                NaN                NaN                NaN                NaN                NaN                NaN                NaN                NaN                NaN                NaN                NaN                NaN   0.0000000000E+00   0.0000000000E+00
   0.0000000000E+00                NaN                NaN   0.0000000000E+00                NaN                NaN   0.0000000000E+00                NaN                NaN                NaN                NaN                NaN                NaN                NaN                NaN   0.0000000000E+00   0.0000000000E+00
   0.0000000000E+00                NaN                NaN   0.0000000000E+00                NaN                NaN   0.0000000000E+00                NaN                NaN                NaN                NaN                NaN                NaN                NaN                NaN   0.0000000000E+00   0.0000000000E+00
                NaN                NaN                NaN                NaN                NaN                NaN                NaN                NaN                NaN                NaN                NaN                NaN                NaN                NaN                NaN   0.0000000000E+00   0.0000000000E+00
                NaN                NaN                NaN                NaN                NaN                NaN                NaN                NaN                NaN                NaN                NaN                NaN                NaN                NaN                NaN   0.0000000000E+00   0.0000000000E+00
   0.0000000000E+00                NaN                NaN   0.0000000000E+00                NaN                NaN   0.0000000000E+00                NaN                NaN                NaN                NaN                NaN                NaN                NaN                NaN   0.0000000000E+00   0.0000000000E+00
   0.2012000000E+01                NaN                NaN   0.1000000000E-03                NaN                NaN   0.1190000000E-01                NaN                NaN                NaN                NaN                NaN                NaN                NaN                NaN   0.0000000000E+00   0.0000000000E+00
   0.2012000000E+01                NaN                NaN   0.1000000000E-03                NaN                NaN   0.1190000000E-01                NaN                NaN                NaN                NaN                NaN                NaN                NaN                NaN   0.0000000000E+00   0.0000000000E+00
   0.2012000000E+01                NaN                NaN   0.1000000000E-03                NaN                NaN   0.1190000000E-01                NaN                NaN                NaN                NaN                NaN                NaN                NaN                NaN   0.0000000000E+00   0.0000000000E+00
   0.2012000000E+01                NaN                NaN   0.1000000000E-03                NaN                NaN   0.1190000000E-01                NaN                NaN                NaN                NaN                NaN                NaN                NaN                NaN   0.0000000000E+00   0.0000000000E+00
     1     2     3     4     5     6     7     8
     2     9    10     3     6    11    12     7
 VARIABLES = X,Y,Z,DU1,DU2,DU3,U1,U2,U3,S11,S22,S33,S12,S13,S23,ematrix,Vf
 ZONE, T="0.1300D+01" F=FEPOINT, I=   12 J=    2 ET=BRICK
   0.0000000000E+00                NaN                NaN   0.0000000000E+00                NaN                NaN   0.0000000000E+00                NaN                NaN                NaN                NaN                NaN                NaN                NaN                NaN   0.0000000000E+00   0.0000000000E+00
                NaN                NaN                NaN                NaN                NaN                NaN                NaN                NaN                NaN                NaN                NaN                NaN                NaN                NaN                NaN   0.0000000000E+00   0.0000000000E+00
                NaN                NaN                NaN                NaN                NaN                NaN                NaN                NaN                NaN                NaN                NaN                NaN                NaN                NaN                NaN   0.0000000000E+00   0.0000000000E+00
   0.0000000000E+00                NaN                NaN   0.0000000000E+00                NaN                NaN   0.0000000000E+00                NaN                NaN                NaN                NaN                NaN                NaN                NaN                NaN   0.0000000000E+00   0.0000000000E+00
   0.0000000000E+00                NaN                NaN   0.0000000000E+00                NaN                NaN   0.0000000000E+00                NaN                NaN                NaN                NaN                NaN                NaN                NaN                NaN   0.0000000000E+00   0.0000000000E+00
                NaN                NaN                NaN                NaN                NaN                NaN                NaN                NaN                NaN                NaN                NaN                NaN                NaN                NaN                NaN   0.0000000000E+00   0.0000000000E+00
                NaN                NaN                NaN                NaN                NaN                NaN                NaN                NaN                NaN                NaN                NaN                NaN                NaN                NaN                NaN   0.0000000000E+00   0.0000000000E+00
   0.0000000000E+00                NaN                NaN   0.0000000000E+00                NaN                NaN   0.0000000000E+00                NaN                NaN                NaN                NaN                NaN                NaN                NaN                NaN   0.0000000000E+00   0.0000000000E+00
   0.2013000000E+01                NaN                NaN   0.1000000000E-03                NaN                NaN   0.1290000000E-01                NaN                NaN                NaN                NaN                NaN                NaN                NaN                NaN   0.0000000000E+00   0.0000000000E+00
   0.2013000000E+01                NaN                NaN   0.1000000000E-03                NaN                NaN   0.1290000000E-01                NaN                NaN                NaN                NaN                NaN                NaN                NaN                NaN   0.0000000000E+00   0.0000000000E+00
   0.2013000000E+01                NaN                NaN   0.1000000000E-03                NaN                NaN   0.1290000000E-01                NaN                NaN                NaN                NaN                NaN                NaN                NaN                NaN   0.0000000000E+00   0.0000000000E+00
   0.2013000000E+01                NaN                NaN   0.1000000000E-03                NaN                NaN   0.1290000000E-01                NaN                NaN                NaN                NaN                NaN                NaN                NaN                NaN   0.0000000000E+00   0.0000000000E+00
     1     2     3     4     5     6     7     8
     2     9    10     3     6    11    12     7
 VARIABLES = X,Y,Z,DU1,DU2,DU3,U1,U2,U3,S11,S22,S33,S12,S13,S23,ematrix,Vf
 ZONE, T="0.1400D+01" F=FEPOINT, I=   12 J=    2 ET=BRICK
   0.0000000000E+00                NaN                NaN   0.0000000000E+00                NaN                NaN   0.0000000000E+00                NaN                NaN                NaN                NaN                NaN                NaN                NaN                NaN   0.0000000000E+00   0.0000000000E+00
                NaN                NaN                NaN                NaN                NaN                NaN                NaN                NaN                NaN                NaN                NaN                NaN                NaN                NaN                NaN   0.0000000000E+00   0.0000000000E+00
                NaN                NaN                NaN                NaN                NaN                NaN                NaN                NaN                NaN                NaN                NaN                NaN                NaN                NaN                NaN   0.0000000000E+00   0.0000000000E+00
   0.0000000000E+00                NaN                NaN   0.0000000000E+00                NaN                NaN   0.0000000000E+00                NaN                NaN                NaN                NaN                NaN                NaN                NaN                NaN   0.0000000000E+00   0.0000000000E+00
   0.0000000000E+00                NaN                NaN   0.0000000000E+00                NaN                NaN   0.0000000000E+00                NaN                NaN                NaN                NaN                NaN                NaN                NaN                NaN   0.0000000000E+00   0.0000000000E+00
                NaN                NaN                NaN                NaN                NaN                NaN                NaN                NaN                NaN                NaN                NaN                NaN                NaN                NaN                NaN   0.0000000000E+00   0.0000000000E+00
                NaN                NaN                NaN                NaN                NaN                NaN                NaN                NaN                NaN                NaN                NaN                NaN                NaN                NaN                NaN   0.0000000000E+00   0.0000000000E+00
   0.0000000000E+00                NaN                NaN   0.0000000000E+00                NaN                NaN   0.0000000000E+00                NaN                NaN                NaN                NaN                NaN                NaN                NaN                NaN   0.0000000000E+00   0.0000000000E+00
   0.2014000000E+01                NaN                NaN   0.1000000000E-03                NaN                NaN   0.1390000000E-01                NaN                NaN                NaN                NaN                NaN                NaN                NaN                NaN   0.0000000000E+00   0.0000000000E+00
   0.2014000000E+01                NaN                NaN   0.1000000000E-03                NaN                NaN   0.1390000000E-01                NaN                NaN                NaN                NaN                NaN                NaN                NaN                NaN   0.0000000000E+00   0.0000000000E+00
   0.2014000000E+01                NaN                NaN   0.1000000000E-03                NaN                NaN   0.1390000000E-01                NaN                NaN                NaN                NaN                NaN                NaN                NaN                NaN   0.0000000000E+00   0.0000000000E+00
   0.2014000000E+01                NaN                NaN   0.1000000000E-03                NaN                NaN   0.1390000000E-01                NaN                NaN                NaN                NaN                NaN                NaN                NaN                NaN   0.0000000000E+00   0.0000000000E+00
     1     2     3     4     5     6     7     8
     2     9    10     3     6    11    12     7
 VARIABLES = X,Y,Z,DU1,DU2,DU3,U1,U2,U3,S11,S22,S33,S12,S13,S23,ematrix,Vf
 ZONE, T="0.1500D+01" F=FEPOINT, I=   12 J=    2 ET=BRICK
   0.0000000000E+00                NaN                NaN   0.0000000000E+00                NaN                NaN   0.0000000000E+00                NaN                NaN                NaN                NaN                NaN                NaN                NaN                NaN   0.0000000000E+00   0.0000000000E+00
                NaN                NaN                NaN                NaN                NaN                NaN                NaN                NaN                NaN                NaN                NaN                NaN                NaN                NaN                NaN   0.0000000000E+00   0.0000000000E+00
                NaN                NaN                NaN                NaN                NaN                NaN                NaN                NaN                NaN                NaN                NaN                NaN                NaN                NaN                NaN   0.0000000000E+00   0.0000000000E+00
   0.0000000000E+00                NaN                NaN   0.0000000000E+00                NaN                NaN   0.0000000000E+00                NaN                NaN                NaN                NaN                NaN                NaN                NaN                NaN   0.0000000000E+00   0.0000000000E+00
   0.0000000000E+00                NaN                NaN   0.0000000000E+00                NaN                NaN   0.0000000000E+00                NaN                NaN                NaN                NaN                NaN                NaN                NaN                NaN   0.0000000000E+00   0.0000000000E+00
                NaN                NaN                NaN                NaN                NaN                NaN                NaN                NaN                NaN                NaN                NaN                NaN                NaN                NaN                NaN   0.0000000000E+00   0.0000000000E+00
                NaN                NaN                NaN                NaN                NaN                NaN                NaN                NaN                NaN                NaN                NaN                NaN                NaN                NaN                NaN   0.0000000000E+00   0.0000000000E+00
   0.0000000000E+00                NaN                NaN   0.0000000000E+00                NaN                NaN   0.0000000000E+00                NaN                NaN                NaN                NaN                NaN                NaN                NaN                NaN   0.0000000000E+00   0.0000000000E+00
   0.2015000000E+01                NaN                NaN   0.1000000000E-03                NaN                NaN   0.1490000000E-01                NaN                NaN                NaN                NaN                NaN                NaN                NaN                NaN   0.0000000000E+00   0.0000000000E+00
   0.2015000000E+01                NaN                NaN   0.1000000000E-03                NaN                NaN   0.1490000000E-01                NaN                NaN                NaN                NaN                NaN                NaN                NaN                NaN   0.0000000000E+00   0.0000000000E+00
   0.2015000000E+01                NaN                NaN   0.1000000000E-03                NaN                NaN   0.1490000000E-01                NaN                NaN                NaN                NaN                NaN                NaN                NaN                NaN   0.0000000000E+00   0.0000000000E+00
   0.2015000000E+01                NaN                NaN   0.1000000000E-03                NaN                NaN   0.1490000000E-01                NaN                NaN                NaN                NaN                NaN                NaN                NaN                NaN   0.0000000000E+00   0.0000000000E+00
     1     2     3     4     5     6     7     8
     2     9    10     3     6    11    12     7
 VARIABLES = X,Y,Z,DU1,DU2,DU3,U1,U2,U3,S11,S22,S33,S12,S13,S23,ematrix,Vf
 ZONE, T="0.1600D+01" F=FEPOINT, I=   12 J=    2 ET=BRICK
   0.0000000000E+00                NaN                NaN   0.0000000000E+00                NaN                NaN   0.0000000000E+00                NaN                NaN                NaN                NaN                NaN                NaN                NaN                NaN   0.0000000000E+00   0.0000000000E+00
                NaN                NaN                NaN                NaN                NaN                NaN                NaN                NaN                NaN                NaN                NaN                NaN                NaN                NaN                NaN   0.0000000000E+00   0.0000000000E+00
                NaN                NaN                NaN                NaN                NaN                NaN                NaN                NaN                NaN                NaN                NaN                NaN                NaN                NaN                NaN   0.0000000000E+00   0.0000000000E+00
   0.0000000000E+00                NaN                NaN   0.0000000000E+00                NaN                NaN   0.0000000000E+00                NaN                NaN                NaN                NaN                NaN                NaN                NaN                NaN   0.0000000000E+00   0.0000000000E+00
   0.0000000000E+00                NaN                NaN   0.0000000000E+00                NaN                NaN   0.0000000000E+00                NaN                NaN                NaN                NaN                NaN                NaN                NaN                NaN   0.0000000000E+00   0.0000000000E+00
                NaN                NaN                NaN                NaN                NaN                NaN                NaN                NaN                NaN                NaN                NaN                NaN                NaN                NaN                NaN   0.0000000000E+00   0.0000000000E+00
                NaN                NaN                NaN                NaN                NaN                NaN                NaN                NaN                NaN                NaN                NaN                NaN                NaN                NaN                NaN   0.0000000000E+00   0.0000000000E+00
   0.0000000000E+00                NaN                NaN   0.0000000000E+00                NaN                NaN   0.0000000000E+00                NaN                NaN                NaN                NaN                NaN                NaN                NaN                NaN   0.0000000000E+00   0.0000000000E+00
   0.2016000000E+01                NaN                NaN   0.1000000000E-03                NaN                NaN   0.1590000000E-01                NaN                NaN                NaN                NaN                NaN                NaN                NaN                NaN   0.0000000000E+00   0.0000000000E+00
   0.2016000000E+01                NaN                NaN   0.1000000000E-03                NaN                NaN   0.1590000000E-01                NaN                NaN                NaN                NaN                NaN                NaN                NaN                NaN   0.0000000000E+00   0.0000000000E+00
   0.2016000000E+01                NaN                NaN   0.1000000000E-03                NaN                NaN   0.1590000000E-01                NaN                NaN                NaN                NaN                NaN                NaN                NaN                NaN   0.0000000000E+00   0.0000000000E+00
   0.2016000000E+01                NaN                NaN   0.1000000000E-03                NaN                NaN   0.1590000000E-01                NaN                NaN                NaN                NaN                NaN                NaN                NaN                NaN   0.0000000000E+00   0.0000000000E+00
     1     2     3     4     5     6     7     8
     2     9    10     3     6    11    12     7
 VARIABLES = X,Y,Z,DU1,DU2,DU3,U1,U2,U3,S11,S22,S33,S12,S13,S23,ematrix,Vf
 ZONE, T="0.1700D+01" F=FEPOINT, I=   12 J=    2 ET=BRICK
   0.0000000000E+00                NaN                NaN   0.0000000000E+00                NaN                NaN   0.0000000000E+00                NaN                NaN                NaN                NaN                NaN                NaN                NaN                NaN   0.0000000000E+00   0.0000000000E+00
                NaN                NaN                NaN                NaN                NaN                NaN                NaN                NaN                NaN                NaN                NaN                NaN                NaN                NaN                NaN   0.0000000000E+00   0.0000000000E+00
                NaN                NaN                NaN                NaN                NaN                NaN                NaN                NaN                NaN                NaN                NaN                NaN                NaN                NaN                NaN   0.0000000000E+00   0.0000000000E+00
   0.0000000000E+00                NaN                NaN   0.0000000000E+00                NaN                NaN   0.0000000000E+00                NaN                NaN                NaN                NaN                NaN                NaN                NaN                NaN   0.0000000000E+00   0.0000000000E+00
   0.0000000000E+00                NaN                NaN   0.0000000000E+00                NaN                NaN   0.0000000000E+00                NaN                NaN                NaN                NaN                NaN                NaN                NaN                NaN   0.0000000000E+00   0.0000000000E+00
                NaN                NaN                NaN                NaN                NaN                NaN                NaN                NaN                NaN                NaN                NaN                NaN                NaN                NaN                NaN   0.0000000000E+00   0.0000000000E+00
                NaN                NaN                NaN                NaN                NaN                NaN                NaN                NaN                NaN                NaN                NaN                NaN                NaN                NaN                NaN   0.0000000000E+00   0.0000000000E+00
   0.0000000000E+00                NaN                NaN   0.0000000000E+00                NaN                NaN   0.0000000000E+00                NaN                NaN                NaN                NaN                NaN                NaN                NaN                NaN   0.0000000000E+00   0.0000000000E+00
   0.2017000000E+01                NaN                NaN   0.1000000000E-03                NaN                NaN   0.1690000000E-01                NaN                NaN                NaN                NaN                NaN                NaN                NaN                NaN   0.0000000000E+00   0.0000000000E+00
   0.2017000000E+01                NaN                NaN   0.1000000000E-03                NaN                NaN   0.1690000000E-01                NaN                NaN                NaN                NaN                NaN                NaN                NaN                NaN   0.0000000000E+00   0.0000000000E+00
   0.2017000000E+01                NaN                NaN   0.1000000000E-03                NaN                NaN   0.1690000000E-01                NaN                NaN                NaN                NaN                NaN                NaN                NaN                NaN   0.0000000000E+00   0.0000000000E+00
   0.2017000000E+01                NaN                NaN   0.1000000000E-03                NaN                NaN   0.1690000000E-01                NaN                NaN                NaN                NaN                NaN                NaN                NaN                NaN   0.0000000000E+00   0.0000000000E+00
     1     2     3     4     5     6     7     8
     2     9    10     3     6    11    12     7
 VARIABLES = X,Y,Z,DU1,DU2,DU3,U1,U2,U3,S11,S22,S33,S12,S13,S23,ematrix,Vf
 ZONE, T="0.1800D+01" F=FEPOINT, I=   12 J=    2 ET=BRICK
   0.0000000000E+00                NaN                NaN   0.0000000000E+00                NaN                NaN   0.0000000000E+00                NaN                NaN                NaN                NaN                NaN                NaN                NaN                NaN   0.0000000000E+00   0.0000000000E+00
                NaN                NaN                NaN                NaN                NaN                NaN                NaN                NaN                NaN                NaN                NaN                NaN                NaN                NaN                NaN   0.0000000000E+00   0.0000000000E+00
                NaN                NaN                NaN                NaN                NaN                NaN                NaN                NaN                NaN                NaN                NaN                NaN                NaN                NaN                NaN   0.0000000000E+00   0.0000000000E+00
   0.0000000000E+00                NaN                NaN   0.0000000000E+00                NaN                NaN   0.0000000000E+00                NaN                NaN                NaN                NaN                NaN                NaN                NaN                NaN   0.0000000000E+00   0.0000000000E+00
   0.0000000000E+00                NaN                NaN   0.0000000000E+00                NaN                NaN   0.0000000000E+00                NaN                NaN                NaN                NaN                NaN                NaN                NaN                NaN   0.0000000000E+00   0.0000000000E+00
                NaN                NaN                NaN                NaN                NaN                NaN                NaN                NaN                NaN                NaN                NaN                NaN                NaN                NaN                NaN   0.0000000000E+00   0.0000000000E+00
                NaN                NaN                NaN                NaN                NaN                NaN                NaN                NaN                NaN                NaN                NaN                NaN                NaN                NaN                NaN   0.0000000000E+00   0.0000000000E+00
   0.0000000000E+00                NaN                NaN   0.0000000000E+00                NaN                NaN   0.0000000000E+00                NaN                NaN                NaN                NaN                NaN                NaN                NaN                NaN   0.0000000000E+00   0.0000000000E+00
   0.2018000000E+01                NaN                NaN   0.1000000000E-03                NaN                NaN   0.1790000000E-01                NaN                NaN                NaN                NaN                NaN                NaN                NaN                NaN   0.0000000000E+00   0.0000000000E+00
   0.2018000000E+01                NaN                NaN   0.1000000000E-03                NaN                NaN   0.1790000000E-01                NaN                NaN                NaN                NaN                NaN                NaN                NaN                NaN   0.0000000000E+00   0.0000000000E+00
   0.2018000000E+01                NaN                NaN   0.1000000000E-03                NaN                NaN   0.1790000000E-01                NaN                NaN                NaN                NaN                NaN                NaN                NaN                NaN   0.0000000000E+00   0.0000000000E+00
   0.2018000000E+01                NaN                NaN   0.1000000000E-03                NaN                NaN   0.1790000000E-01                NaN                NaN                NaN                NaN                NaN                NaN                NaN                NaN   0.0000000000E+00   0.0000000000E+00
     1     2     3     4     5     6     7     8
     2     9    10     3     6    11    12     7
 VARIABLES = X,Y,Z,DU1,DU2,DU3,U1,U2,U3,S11,S22,S33,S12,S13,S23,ematrix,Vf
 ZONE, T="0.1900D+01" F=FEPOINT, I=   12 J=    2 ET=BRICK
   0.0000000000E+00                NaN                NaN   0.0000000000E+00                NaN                NaN   0.0000000000E+00                NaN                NaN                NaN                NaN                NaN                NaN                NaN                NaN   0.0000000000E+00   0.0000000000E+00
                NaN                NaN                NaN                NaN                NaN                NaN                NaN                NaN                NaN                NaN                NaN                NaN                NaN                NaN                NaN   0.0000000000E+00   0.0000000000E+00
                NaN                NaN                NaN                NaN                NaN                NaN                NaN                NaN                NaN                NaN                NaN                NaN                NaN                NaN                NaN   0.0000000000E+00   0.0000000000E+00
   0.0000000000E+00                NaN                NaN   0.0000000000E+00                NaN                NaN   0.0000000000E+00                NaN                NaN                NaN                NaN                NaN                NaN                NaN                NaN   0.0000000000E+00   0.0000000000E+00
   0.0000000000E+00                NaN                NaN   0.0000000000E+00                NaN                NaN   0.0000000000E+00                NaN                NaN                NaN                NaN                NaN                NaN                NaN                NaN   0.0000000000E+00   0.0000000000E+00
                NaN                NaN                NaN                NaN                NaN                NaN                NaN                NaN                NaN                NaN                NaN                NaN                NaN                NaN                NaN   0.0000000000E+00   0.0000000000E+00
                NaN                NaN                NaN                NaN                NaN                NaN                NaN                NaN                NaN                NaN                NaN                NaN                NaN                NaN                NaN   0.0000000000E+00   0.0000000000E+00
   0.0000000000E+00                NaN                NaN   0.0000000000E+00                NaN                NaN   0.0000000000E+00                NaN                NaN                NaN                NaN                NaN                NaN                NaN                NaN   0.0000000000E+00   0.0000000000E+00
   0.2019000000E+01                NaN                NaN   0.1000000000E-03                NaN                NaN   0.1890000000E-01                NaN                NaN                NaN                NaN                NaN                NaN                NaN                NaN   0.0000000000E+00   0.0000000000E+00
   0.2019000000E+01                NaN                NaN   0.1000000000E-03                NaN                NaN   0.1890000000E-01                NaN                NaN                NaN                NaN                NaN                NaN                NaN                NaN   0.0000000000E+00   0.0000000000E+00
   0.2019000000E+01                NaN                NaN   0.1000000000E-03                NaN                NaN   0.1890000000E-01                NaN                NaN                NaN                NaN                NaN                NaN                NaN                NaN   0.0000000000E+00   0.0000000000E+00
   0.2019000000E+01                NaN                NaN   0.1000000000E-03                NaN                NaN   0.1890000000E-01                NaN                NaN                NaN                NaN                NaN                NaN                NaN                NaN   0.0000000000E+00   0.0000000000E+00
     1     2     3     4     5     6     7     8
     2     9    10     3     6    11    12     7
 VARIABLES = X,Y,Z,DU1,DU2,DU3,U1,U2,U3,S11,S22,S33,S12,S13,S23,ematrix,Vf
 ZONE, T="0.2000D+01" F=FEPOINT, I=   12 J=    2 ET=BRICK
   0.0000000000E+00                NaN                NaN   0.0000000000E+00                NaN                NaN   0.0000000000E+00                NaN                NaN                NaN                NaN                NaN                NaN                NaN                NaN   0.0000000000E+00   0.0000000000E+00
                NaN                NaN                NaN                NaN                NaN                NaN                NaN                NaN                NaN                NaN                NaN                NaN                NaN                NaN                NaN   0.0000000000E+00   0.0000000000E+00
                NaN                NaN                NaN                NaN                NaN                NaN                NaN                NaN                NaN                NaN                NaN                NaN                NaN                NaN                NaN   0.0000000000E+00   0.0000000000E+00
   0.0000000000E+00                NaN                NaN   0.0000000000E+00                NaN                NaN   0.0000000000E+00                NaN                NaN                NaN                NaN                NaN                NaN                NaN                NaN   0.0000000000E+00   0.0000000000E+00
   0.0000000000E+00                NaN                NaN   0.0000000000E+00                NaN                NaN   0.0000000000E+00                NaN                NaN                NaN                NaN                NaN                NaN                NaN                NaN   0.0000000000E+00   0.0000000000E+00
                NaN                NaN                NaN                NaN                NaN                NaN                NaN                NaN                NaN                NaN                NaN                NaN                NaN                NaN                NaN   0.0000000000E+00   0.0000000000E+00
                NaN                NaN                NaN                NaN                NaN                NaN                NaN                NaN                NaN                NaN                NaN                NaN                NaN                NaN                NaN   0.0000000000E+00   0.0000000000E+00
   0.0000000000E+00                NaN                NaN   0.0000000000E+00                NaN                NaN   0.0000000000E+00                NaN                NaN                NaN                NaN                NaN                NaN                NaN                NaN   0.0000000000E+00   0.0000000000E+00
   0.2020000000E+01                NaN                NaN   0.1000000000E-03                NaN                NaN   0.1990000000E-01                NaN                NaN                NaN                NaN                NaN                NaN                NaN                NaN   0.0000000000E+00   0.0000000000E+00
   0.2020000000E+01                NaN                NaN   0.1000000000E-03                NaN                NaN   0.1990000000E-01                NaN                NaN                NaN                NaN                NaN                NaN                NaN                NaN   0.0000000000E+00   0.0000000000E+00
   0.2020000000E+01                NaN                NaN   0.1000000000E-03                NaN                NaN   0.1990000000E-01                NaN                NaN                NaN                NaN                NaN                NaN                NaN                NaN   0.0000000000E+00   0.0000000000E+00
   0.2020000000E+01                NaN                NaN   0.1000000000E-03                NaN                NaN   0.1990000000E-01                NaN                NaN                NaN                NaN                NaN                NaN                NaN                NaN   0.0000000000E+00   0.0000000000E+00
     1     2     3     4     5     6     7     8
     2     9    10     3     6    11    12     7
