 VARIABLES = X,Y,Z,DU1,DU2,DU3,U1,U2,U3,S11,S22,S33,S12,S13,S23
 ZONE, T="0.1000D+01" F=FEPOINT, I= 3642 J= 2725 ET=BRICK
  -0.1799823772E+01  -0.6155034243E+00  -0.6741763613E-03  -0.1298977229E-01   0.3439927671E-01  -0.6741763613E-03   0.0000000000E+00   0.0000000000E+00   0.0000000000E+00   0.1048515316E+00  -0.1049990274E+01   0.3331398193E-01  -0.9474505793E-01   0.1470179022E-03   0.1514546999E-01
  -0.1807589553E+01  -0.4015832572E+00  -0.9730848602E-03  -0.1375010316E-01   0.3198763475E-01  -0.9730848602E-03   0.0000000000E+00   0.0000000000E+00   0.0000000000E+00   0.2022938830E-01  -0.1121434881E+01  -0.4897555785E-01  -0.9674209865E-01   0.1253699896E-01  -0.1852223000E-01
  -0.2014991864E+01  -0.4002815051E+00  -0.8144843853E-03  -0.1499186361E-01   0.3184287089E-01  -0.8144843853E-03   0.0000000000E+00   0.0000000000E+00   0.0000000000E+00   0.1099190007E+00  -0.9782300971E+00  -0.1167017997E-02  -0.5791983206E-01  -0.6923228652E-02   0.1069270924E-02
  -0.2014292213E+01  -0.6138243525E+00  -0.6574816464E-03  -0.1429221350E-01   0.3411652149E-01  -0.6574816464E-03   0.0000000000E+00   0.0000000000E+00   0.0000000000E+00   0.1155040961E+00  -0.1003413481E+01   0.2155752882E-01  -0.6792210410E-01  -0.4412672238E-02   0.3158744440E-01
  -0.1799853294E+01  -0.6152046261E+00   0.2003362550E+00  -0.1301929436E-01   0.3469807486E-01   0.3362520386E-03   0.0000000000E+00   0.0000000000E+00   0.0000000000E+00   0.7367994335E-01  -0.1079183442E+01   0.4019903760E-02  -0.7335914373E-01  -0.8058790634E-03   0.9442079652E-02
  -0.1807470110E+01  -0.4012896972E+00   0.2000277496E+00  -0.1363066039E-01   0.3228119478E-01   0.2774657288E-04   0.0000000000E+00   0.0000000000E+00   0.0000000000E+00   0.1201191292E+00  -0.1030166623E+01   0.4608146247E-01  -0.6868814243E-01   0.1002658328E-01  -0.1074023681E-01
  -0.2014882480E+01  -0.4000022119E+00   0.2000501532E+00  -0.1488248037E-01   0.3212216408E-01   0.5015024691E-04   0.0000000000E+00   0.0000000000E+00   0.0000000000E+00   0.2129037484E+00  -0.8812040272E+00   0.9922966142E-01  -0.3786675603E-01  -0.2632984891E-02   0.3469948219E-02
  -0.2014317088E+01  -0.6135427070E+00   0.2002723073E+00  -0.1431708770E-01   0.3439816699E-01   0.2723042920E-03   0.0000000000E+00   0.0000000000E+00   0.0000000000E+00   0.1333871421E+00  -0.9837098995E+00   0.4111921269E-01  -0.5233740683E-01  -0.4204146471E-02   0.2246365367E-01
  -0.1814415780E+01  -0.1913990161E+00  -0.1500025413E-02  -0.1426849017E-01   0.2965285589E-01  -0.1500025413E-02   0.0000000000E+00   0.0000000000E+00   0.0000000000E+00  -0.1687236663E+00  -0.1257281507E+01  -0.1616777991E+00  -0.6015314592E-01   0.7693452322E-02  -0.3706826596E-01
  -0.2015349257E+01  -0.1892968124E+00  -0.1203622281E-02  -0.1534925667E-01   0.2968093662E-01  -0.1203622281E-02   0.0000000000E+00   0.0000000000E+00   0.0000000000E+00  -0.3181747145E-02  -0.1028805809E+01  -0.6119954895E-01  -0.2593656030E-01  -0.2216961050E-01  -0.2194995461E-01
  -0.1814208121E+01  -0.1911295559E+00   0.1995981520E+00  -0.1406083098E-01   0.2992231605E-01  -0.4018510033E-03   0.0000000000E+00   0.0000000000E+00   0.0000000000E+00  -0.5453171410E-01  -0.1166355732E+01  -0.6175881281E-01  -0.5171560078E-01   0.1196062716E-01  -0.2240231839E-01
  -0.2015173419E+01  -0.1890362030E+00   0.1997035482E+00  -0.1517341907E-01   0.2994154598E-01  -0.2964548385E-03   0.0000000000E+00   0.0000000000E+00   0.0000000000E+00   0.1432705254E+00  -0.9007912015E+00   0.7522385274E-01  -0.2352467896E-01  -0.6844574137E-02  -0.1164926785E-01
  -0.1819359157E+01   0.1511805937E-01  -0.1891979378E-02  -0.1429113665E-01   0.2738940737E-01  -0.1891979378E-02   0.0000000000E+00   0.0000000000E+00   0.0000000000E+00  -0.1769866677E+00  -0.1233725294E+01  -0.1278479537E+00  -0.1217403715E-02  -0.4379129472E-02  -0.5721448689E-02
  -0.2015274159E+01   0.1625202461E-01  -0.1541337406E-02  -0.1527415945E-01   0.2763434061E-01  -0.1541337406E-02   0.0000000000E+00   0.0000000000E+00   0.0000000000E+00  -0.3164560545E-02  -0.9938370972E+00  -0.2698716118E-01   0.3103031315E-02  -0.3732046420E-01  -0.5285070145E-02
  -0.1819157971E+01   0.1534644894E-01   0.1992587158E+00  -0.1408995104E-01   0.2761779694E-01  -0.7412872226E-03   0.0000000000E+00   0.0000000000E+00   0.0000000000E+00  -0.1398741450E+00  -0.1227656333E+01  -0.1085541340E+00  -0.3714129056E-02   0.8198074136E-02  -0.3877557232E-02
  -0.2015114648E+01   0.1647847834E-01   0.1993995591E+00  -0.1511464764E-01   0.2786079434E-01  -0.6004439015E-03   0.0000000000E+00   0.0000000000E+00   0.0000000000E+00   0.1325902245E+00  -0.8837543759E+00   0.9547600266E-01  -0.4444122353E-03  -0.1196248154E-01  -0.2792105889E-02
  -0.1583400382E+01  -0.6191996876E+00  -0.6339352476E-03  -0.1164604216E-01   0.3445917943E-01  -0.6339352476E-03   0.0000000000E+00   0.0000000000E+00   0.0000000000E+00   0.1534646024E+00  -0.1034460013E+01   0.8889393200E-01  -0.1094566874E+00   0.4177500197E-02   0.2486391531E-01
  -0.1598940151E+01  -0.4038003231E+00  -0.9799818384E-03  -0.1247992145E-01   0.3194718091E-01  -0.9799818384E-03   0.0000000000E+00   0.0000000000E+00   0.0000000000E+00  -0.3141117336E-01  -0.1207757534E+01  -0.8588949453E-01  -0.1295878636E+00   0.3225167282E-01  -0.2023324648E-01
  -0.1583437670E+01  -0.6188388105E+00   0.2004242324E+00  -0.1168333004E-01   0.3482005653E-01   0.4242293833E-03   0.0000000000E+00   0.0000000000E+00   0.0000000000E+00   0.7494348294E-01  -0.1108862540E+01   0.1430003294E-01  -0.8072492819E-01   0.1750832764E-02   0.1423134629E-01
  -0.1598802615E+01  -0.4034526266E+00   0.2000847970E+00  -0.1234238536E-01   0.3229487739E-01   0.8479396823E-04   0.0000000000E+00   0.0000000000E+00   0.0000000000E+00   0.2052797610E+00  -0.9860568177E+00   0.1426445600E+00  -0.9077317426E-01   0.2175370301E-01  -0.1263355227E-01
  -0.1614128197E+01  -0.1919313959E+00  -0.1612571179E-02  -0.1320179663E-01   0.2950513409E-01  -0.1612571179E-02   0.0000000000E+00   0.0000000000E+00   0.0000000000E+00  -0.2451537971E+00  -0.1357669977E+01  -0.1986819053E+00  -0.8928537677E-01   0.3574219266E-01  -0.4401619942E-01
  -0.1613871996E+01  -0.1916278971E+00   0.1995880453E+00  -0.1294559582E-01   0.2980863288E-01  -0.4119577000E-03   0.0000000000E+00   0.0000000000E+00   0.0000000000E+00   0.1173660270E-01  -0.1138750973E+01   0.3628570537E-01  -0.7331041293E-01   0.2876375509E-01  -0.2740157087E-01
  -0.1627627583E+01   0.1847809815E-01  -0.2053857109E-02  -0.1333889320E-01   0.2711070915E-01  -0.2053857109E-02   0.0000000000E+00   0.0000000000E+00   0.0000000000E+00  -0.1939215551E+00  -0.1272154639E+01  -0.9774371107E-01   0.2107858703E-02   0.2643046288E-01  -0.5970894988E-02
  -0.1627368263E+01   0.1871159018E-01   0.1992127215E+00  -0.1307957298E-01   0.2734420118E-01  -0.7872814831E-03   0.0000000000E+00   0.0000000000E+00   0.0000000000E+00  -0.8944756875E-01  -0.1216832002E+01  -0.1962671206E-01   0.1142340670E-02   0.2655679466E-01  -0.4311587638E-02
  -0.1362475195E+01  -0.6259910413E+00  -0.5769925478E-03  -0.1023046461E-01   0.3456759968E-01  -0.5769925478E-03   0.0000000000E+00   0.0000000000E+00   0.0000000000E+00   0.1709201929E+00  -0.1056969791E+01   0.1032726095E+00  -0.9450860337E-01  -0.4227752225E-03   0.4106411101E-01
  -0.1388894385E+01  -0.4066987478E+00  -0.9584302044E-03  -0.1117331476E-01   0.3192384617E-01  -0.9584302044E-03   0.0000000000E+00   0.0000000000E+00   0.0000000000E+00  -0.1055698289E+00  -0.1320780865E+01  -0.1568905019E+00  -0.1462157570E+00   0.3582349079E-01  -0.1750433408E-01
  -0.1362528991E+01  -0.6255557111E+00   0.2005154286E+00  -0.1028426121E-01   0.3500292988E-01   0.5154256383E-03   0.0000000000E+00   0.0000000000E+00   0.0000000000E+00   0.1040617408E+00  -0.1115714829E+01   0.4298964688E-01  -0.6497718603E-01  -0.1309639273E-02   0.2216211683E-01
  -0.1388727169E+01  -0.4062811443E+00   0.2001509084E+00  -0.1100609879E-01   0.3234144973E-01   0.1509053917E-03   0.0000000000E+00   0.0000000000E+00   0.0000000000E+00   0.2689072349E+00  -0.9705678784E+00   0.2041577232E+00  -0.9896387414E-01   0.2440902228E-01  -0.1266558951E-01
  -0.1414673165E+01  -0.1933222559E+00  -0.1708379403E-02  -0.1215656473E-01   0.2938793609E-01  -0.1708379403E-02   0.0000000000E+00   0.0000000000E+00   0.0000000000E+00  -0.4222191046E+00  -0.1553500693E+01  -0.3398701699E+00  -0.1147279177E+00   0.4758070265E-01  -0.5024995454E-01
  -0.1414341050E+01  -0.1929734430E+00   0.1995812104E+00  -0.1182444990E-01   0.2973674899E-01  -0.4187925980E-03   0.0000000000E+00   0.0000000000E+00   0.0000000000E+00   0.2096591751E-01  -0.1168735854E+01   0.6961496306E-01  -0.9210561549E-01   0.3629160521E-01  -0.3255937411E-01
  -0.1435055874E+01   0.1673053801E-01  -0.2197939086E-02  -0.1241984353E-01   0.2692901601E-01  -0.2197939086E-02   0.0000000000E+00   0.0000000000E+00   0.0000000000E+00  -0.3830545855E+00  -0.1471294209E+01  -0.2379484942E+00   0.1537743797E-02   0.4140161347E-01  -0.7014855983E-02
  -0.1434704792E+01   0.1697246780E-01   0.1991748965E+00  -0.1206876180E-01   0.2717094580E-01  -0.8251064727E-03   0.0000000000E+00   0.0000000000E+00   0.0000000000E+00  -0.9340640377E-01  -0.1257805219E+01   0.1025118242E-01   0.5605574715E-03   0.3534911727E-01  -0.5372749450E-02
  -0.1130593646E+01  -0.6365299351E+00  -0.5814468106E-03  -0.8692846325E-02   0.3492509085E-01  -0.5814468106E-03   0.0000000000E+00   0.0000000000E+00   0.0000000000E+00   0.4595443990E+00  -0.7901170791E+00   0.4037709145E+00   0.7216389470E-02  -0.3609084061E-01   0.6623691474E-01
  -0.1178899682E+01  -0.4089023396E+00  -0.1060825811E-02  -0.9843262298E-02   0.3202474844E-01  -0.1060825811E-02   0.0000000000E+00   0.0000000000E+00   0.0000000000E+00  -0.2397692070E+00  -0.1471341102E+01  -0.2572572169E+00  -0.1029228817E+00  -0.1482811301E-01  -0.3068056022E-01
  -0.1130685461E+01  -0.6359977492E+00   0.2005596696E+00  -0.8784661419E-02   0.3545727683E-01   0.5596665990E-03   0.0000000000E+00   0.0000000000E+00   0.0000000000E+00   0.4562919229E-01  -0.1176666094E+01   0.9829319136E-02   0.5687501434E-01  -0.2018189392E-01   0.3553551118E-01
  -0.1178693929E+01  -0.4083944694E+00   0.2001317986E+00  -0.9637509036E-02   0.3253261856E-01   0.1317956099E-03   0.0000000000E+00   0.0000000000E+00   0.0000000000E+00   0.4195270665E+00  -0.8291927915E+00   0.3913352692E+00  -0.3078374303E-01  -0.7225173615E-02  -0.2326657030E-01
  -0.1219735629E+01  -0.1932851148E+00  -0.1921806364E-02  -0.1116371938E-01   0.2932339218E-01  -0.1921806364E-02   0.0000000000E+00   0.0000000000E+00   0.0000000000E+00  -0.6598083061E+00  -0.1798102263E+01  -0.5175318321E+00  -0.1099929091E+00   0.5143914152E-02  -0.5857808168E-01
  -0.1219293599E+01  -0.1928743768E+00   0.1994928635E+00  -0.1072168878E-01   0.2973413024E-01  -0.5071395205E-03   0.0000000000E+00   0.0000000000E+00   0.0000000000E+00   0.2263021806E+00  -0.9925292800E+00   0.3217218308E+00  -0.6840325689E-01   0.8038968928E-02  -0.4026949657E-01
  -0.1246797784E+01   0.1506204793E-01  -0.2431702873E-02  -0.1156125352E-01   0.2678485093E-01  -0.2431702873E-02   0.0000000000E+00   0.0000000000E+00   0.0000000000E+00  -0.5305782621E+00  -0.1628818984E+01  -0.3244698406E+00   0.1638714390E-01   0.1262389833E-01  -0.7944281580E-02
  -0.1246309393E+01   0.1531240896E-01   0.1990722233E+00  -0.1107286251E-01   0.2703521196E-01  -0.9277797138E-03   0.0000000000E+00   0.0000000000E+00   0.0000000000E+00   0.5242031565E-01  -0.1159993019E+01   0.1970671607E+00   0.2160796534E-01   0.1502013826E-01  -0.6403139862E-02
  -0.8655755817E+00  -0.6504830381E+00  -0.6353152997E-03  -0.6986885694E-02   0.3647324788E-01  -0.6353152997E-03   0.0000000000E+00   0.0000000000E+00   0.0000000000E+00  -0.9387965149E-01  -0.1301734780E+01  -0.8652147202E-01   0.1720340329E+00   0.7884899888E-04  -0.9442960892E-02
  -0.9765193066E+00  -0.4004223690E+00  -0.1868355110E-02  -0.8698542623E-02   0.3262510400E-01  -0.1868355110E-02   0.0000000000E+00   0.0000000000E+00   0.0000000000E+00  -0.1719611084E+00  -0.1409358230E+01  -0.2214663694E-01  -0.3641324182E-01  -0.1573643306E+00  -0.9656491152E-01
  -0.8657549556E+00  -0.6497429494E+00   0.2005845379E+00  -0.7166259616E-02   0.3721333660E-01   0.5845349450E-03   0.0000000000E+00   0.0000000000E+00   0.0000000000E+00   0.1117865914E+00  -0.1060560424E+01   0.1365569164E+00   0.2124380901E+00   0.6460466150E-02  -0.1620245348E-01
  -0.9762697826E+00  -0.3997443940E+00   0.1996666023E+00  -0.8449018640E-02   0.3330307903E-01  -0.3334006765E-03   0.0000000000E+00   0.0000000000E+00   0.0000000000E+00   0.1031743790E+00  -0.1166820544E+01   0.2378087552E+00   0.5781930907E-01  -0.9022688895E-01  -0.6874703351E-01
  -0.1037795640E+01  -0.1855826238E+00  -0.2697848959E-02  -0.1031729953E-01   0.2949134915E-01  -0.2697848959E-02   0.0000000000E+00   0.0000000000E+00   0.0000000000E+00  -0.4439291619E+00  -0.1680041545E+01  -0.1913753010E+00  -0.8960141220E-01  -0.6888198419E-01  -0.4749233561E-01
  -0.1037204636E+01  -0.1850697681E+00   0.1990393338E+00  -0.9726296182E-02   0.3000420490E-01  -0.9606691785E-03   0.0000000000E+00   0.0000000000E+00   0.0000000000E+00  -0.1247378549E-01  -0.1371495952E+01   0.1781965722E+00  -0.3261751423E-01  -0.4175650284E-01  -0.3699010176E-01
  -0.1068519320E+01   0.1448474008E-01  -0.3153457339E-02  -0.1078674002E-01   0.2674604908E-01  -0.3153457339E-02   0.0000000000E+00   0.0000000000E+00   0.0000000000E+00  -0.5026673005E+00  -0.1676099744E+01  -0.1802007243E+00   0.1468606102E-01  -0.5304722800E-01  -0.4274464192E-03
  -0.1067840390E+01   0.1475909221E-01   0.1986601202E+00  -0.1010781042E-01   0.2702040121E-01  -0.1339882801E-02   0.0000000000E+00   0.0000000000E+00   0.0000000000E+00  -0.1943837724E+00  -0.1539882351E+01   0.4095491055E-01   0.1645668872E-01  -0.3159473669E-01  -0.1958742566E-02
  -0.8840179904E+00  -0.1688411876E+00  -0.3942709230E-02  -0.9635971363E-02   0.2957810035E-01  -0.3942709230E-02   0.0000000000E+00   0.0000000000E+00   0.0000000000E+00  -0.1009401056E+00  -0.1493495764E+01   0.3211073439E+00  -0.5750398137E-01  -0.2016156901E+00  -0.5537824339E-01
  -0.9122955951E+00   0.2143883572E-01  -0.4335695095E-02  -0.1010967813E-01   0.2649137772E-01  -0.4335695095E-02   0.0000000000E+00   0.0000000000E+00   0.0000000000E+00  -0.1860534930E+00  -0.1516606055E+01   0.2935989280E+00  -0.9830437995E-02  -0.1664970304E+00  -0.2336387057E-01
  -0.8832306516E+00  -0.1683154274E+00   0.1982933597E+00  -0.8848632562E-02   0.3010386059E-01  -0.1706643307E-02   0.0000000000E+00   0.0000000000E+00   0.0000000000E+00   0.1160511030E+00  -0.1453396418E+01   0.4533018449E+00   0.2160967260E-02  -0.1226847367E+00  -0.4836113808E-01
  -0.9113813632E+00   0.2165740731E-01   0.1979536781E+00  -0.9195446158E-02   0.2670994931E-01  -0.2046324900E-02   0.0000000000E+00   0.0000000000E+00   0.0000000000E+00  -0.6684945453E-01  -0.1628122133E+01   0.3018123410E+00  -0.1451367530E-01  -0.1051096783E+00  -0.1647194321E-01
  -0.7408001782E+00  -0.1351551372E+00  -0.5970104247E-02  -0.9112811204E-02   0.2956752879E-01  -0.5970104247E-02   0.0000000000E+00   0.0000000000E+00   0.0000000000E+00  -0.1110510065E+01  -0.2724445207E+01  -0.3820947267E+00   0.3523182187E-01  -0.2673972002E+00  -0.1545065054E+00
  -0.7594262034E+00   0.2624983310E-01  -0.6313047538E-02  -0.9426203422E-02   0.2624983310E-01  -0.6313047538E-02   0.0000000000E+00   0.0000000000E+00   0.0000000000E+00  -0.9381393366E+00  -0.2554829542E+01  -0.1876273133E+00  -0.1524317841E-02  -0.2495960639E+00  -0.6884507930E-02
  -0.7397571348E+00  -0.1346795933E+00   0.1970886797E+00  -0.8069767751E-02   0.3004307268E-01  -0.2911323317E-02   0.0000000000E+00   0.0000000000E+00   0.0000000000E+00  -0.2024067557E+01  -0.3830438663E+01  -0.1396323186E+01   0.9978726548E-01  -0.1657683884E+00  -0.1067892186E+00
  -0.7582439627E+00   0.2643948431E-01   0.1967942901E+00  -0.8243962746E-02   0.2643948431E-01  -0.3205712860E-02   0.0000000000E+00   0.0000000000E+00   0.0000000000E+00  -0.1813505324E+01  -0.3679993139E+01  -0.1190982109E+01   0.3472102215E-02  -0.1592138855E+00  -0.6217162563E-02
  -0.8233601421E+00  -0.3610744969E+00  -0.3245584842E-02  -0.8157310109E-02   0.3300489010E-01  -0.3245584842E-02   0.0000000000E+00   0.0000000000E+00   0.0000000000E+00  -0.8479750526E+00  -0.2200420825E+01  -0.4730410077E+00   0.4999776516E-01  -0.1533817500E+00  -0.1762414289E+00
  -0.8229645463E+00  -0.3603639488E+00   0.1988468681E+00  -0.7761714282E-02   0.3371543815E-01  -0.1153134933E-02   0.0000000000E+00   0.0000000000E+00   0.0000000000E+00  -0.4203890796E+00  -0.1839209777E+01  -0.8508207653E-01   0.1296804979E+00  -0.8553110624E-01  -0.1261465993E+00
  -0.6846919481E+00  -0.2901726978E+00  -0.4726910804E-02  -0.7922095150E-02   0.3306490023E-01  -0.4726910804E-02   0.0000000000E+00   0.0000000000E+00   0.0000000000E+00  -0.6250245013E+00  -0.2197238544E+01  -0.8099380134E-01   0.1100061362E+00   0.2261906337E-01  -0.3556024339E+00
  -0.6840175080E+00  -0.2895469406E+00   0.1979245130E+00  -0.7247655029E-02   0.3369065741E-01  -0.2075489999E-02   0.0000000000E+00   0.0000000000E+00   0.0000000000E+00  -0.1615609439E+01  -0.3264227327E+01  -0.1112538327E+01   0.2004189813E+00   0.1163415670E-01  -0.2343985867E+00
  -0.7201915668E+00  -0.5277231343E+00  -0.1406472180E-02  -0.6713537784E-02   0.3645735874E-01  -0.1406472180E-02   0.0000000000E+00   0.0000000000E+00   0.0000000000E+00  -0.1291043675E+00  -0.1382644533E+01  -0.2427035726E-01   0.2227699434E+00   0.1050447664E+00  -0.2879756898E+00
  -0.7201760755E+00  -0.5270261403E+00   0.2000537348E+00  -0.6698046489E-02   0.3715435268E-01   0.5373179711E-04   0.0000000000E+00   0.0000000000E+00   0.0000000000E+00  -0.8890856323E-01  -0.1339831181E+01   0.1718011411E-01   0.2740691646E+00   0.7278553529E-01  -0.1881629674E+00
  -0.5949788843E+00  -0.4283230901E+00  -0.2331209832E-02  -0.6440595309E-02   0.3656685393E-01  -0.2331209832E-02   0.0000000000E+00   0.0000000000E+00   0.0000000000E+00  -0.1902101876E+00  -0.1747041730E+01  -0.8009968735E-01   0.2495502487E+00   0.2108176101E+00  -0.4282598355E+00
  -0.5947224964E+00  -0.4277340080E+00   0.1994414790E+00  -0.6184207424E-02   0.3715593599E-01  -0.5585239882E-03   0.0000000000E+00   0.0000000000E+00   0.0000000000E+00  -0.4748348562E+00  -0.2013067508E+01  -0.3556125958E+00   0.3067720784E+00   0.1370413086E+00  -0.2744944599E+00
  -0.5672220689E+00  -0.6560864462E+00   0.7646178693E-03  -0.5174110862E-02   0.3990697676E-01   0.7646178693E-03   0.0000000000E+00   0.0000000000E+00   0.0000000000E+00   0.8773244733E+00  -0.2612108622E+00   0.6405769890E+00   0.3419013673E+00   0.1560373409E+00  -0.1225908385E+00
  -0.4744994251E+00  -0.5447663576E+00   0.2169580048E-03  -0.4913947130E-02   0.4003227644E-01   0.2169580048E-03   0.0000000000E+00   0.0000000000E+00   0.0000000000E+00   0.2471280070E+00  -0.1054458520E+01   0.5641144064E-02   0.3853959232E+00   0.2211063571E+00  -0.3545285012E+00
  -0.5674554156E+00  -0.6555430055E+00   0.2014368276E+00  -0.5407457605E-02   0.4045041754E-01   0.1436824630E-02   0.0000000000E+00   0.0000000000E+00   0.0000000000E+00   0.6720885924E+00  -0.4498102766E+00   0.4529544320E+00   0.3362078577E+00   0.1107760602E+00  -0.8745964426E-01
  -0.4745493831E+00  -0.5443809119E+00   0.2010371947E+00  -0.4963905065E-02   0.4041772208E-01   0.1037191695E-02   0.0000000000E+00   0.0000000000E+00   0.0000000000E+00   0.1441259962E+00  -0.1135533159E+01  -0.8135979585E-01   0.3857624408E+00   0.1527063411E+00  -0.2171079039E+00
  -0.3789881718E+00  -0.7489556303E+00   0.2121083766E-02  -0.3723497773E-02   0.4328999574E-01   0.2121083766E-02   0.0000000000E+00   0.0000000000E+00   0.0000000000E+00   0.1157685678E-02  -0.9268580159E+00  -0.3494235212E+00   0.3880433227E+00   0.1007448331E+00  -0.1621787694E-01
  -0.3274746177E+00  -0.6333855688E+00   0.2035796769E-02  -0.3572725694E-02   0.4306665017E-01   0.2035796769E-02   0.0000000000E+00   0.0000000000E+00   0.0000000000E+00   0.9873530339E+00   0.3942899239E-01   0.5832672192E+00   0.3783568889E+00   0.1769121800E+00  -0.1439573537E+00
  -0.3793040910E+00  -0.7487553935E+00   0.2023452235E+00  -0.4039417006E-02   0.4349023252E-01   0.2345220505E-02   0.0000000000E+00   0.0000000000E+00   0.0000000000E+00   0.8863183555E+00  -0.7149902684E-01   0.5177980600E+00   0.3400705714E+00   0.7829552936E-01  -0.1328237042E-01
  -0.3276821421E+00  -0.6333176036E+00   0.2021840271E+00  -0.3780250072E-02   0.4313461544E-01   0.2184024093E-02   0.0000000000E+00   0.0000000000E+00   0.0000000000E+00   0.2759344807E+00  -0.6996719960E+00  -0.1309100043E+00   0.3434305084E+00   0.1233992110E+00  -0.8565824945E-01
  -0.1860590265E+00  -0.8086360329E+00   0.2996625533E-02  -0.2621097507E-02   0.4554054814E-01   0.2996625533E-02   0.0000000000E+00   0.0000000000E+00   0.0000000000E+00  -0.4459877541E-01  -0.7088093491E+00  -0.4120651407E+00   0.2375157176E+00   0.6000067693E-01  -0.2865807093E-01
  -0.1637244818E+00  -0.6873803443E+00   0.2957928697E-02  -0.2516820840E-02   0.4508951271E-01   0.2957928697E-02   0.0000000000E+00   0.0000000000E+00   0.0000000000E+00   0.8335723574E+00   0.1611637726E+00   0.4031947684E+00   0.2128999048E+00   0.5813719699E-01  -0.8500179726E-01
  -0.1862655644E+00  -0.8086920996E+00   0.2029226548E+00  -0.2827635441E-02   0.4548448141E-01   0.2922651805E-02   0.0000000000E+00   0.0000000000E+00   0.0000000000E+00   0.9650136844E+00   0.1829582492E+00   0.5341063812E+00   0.1999232924E+00   0.4389817637E-01  -0.1107875669E-01
  -0.1638882120E+00  -0.6875607755E+00   0.2027772416E+00  -0.2680551007E-02   0.4490908153E-01   0.2777238570E-02   0.0000000000E+00   0.0000000000E+00   0.0000000000E+00   0.3802500930E+00  -0.3972883009E+00  -0.9318012641E-01   0.1778922134E+00   0.4548343226E-01  -0.4270732648E-01
   0.7362656613E-02  -0.8345880101E+00   0.3240185679E-02  -0.1731013387E-02   0.4610339889E-01   0.3240185679E-02   0.0000000000E+00   0.0000000000E+00   0.0000000000E+00  -0.2653367847E+00  -0.8313071647E+00  -0.6188864515E+00  -0.1513707006E-01  -0.1598866913E-01  -0.4220524766E-01
   0.4336321342E-02  -0.7044099757E+00   0.3134409920E-02  -0.1646272658E-02   0.4556618230E-01   0.3134409920E-02   0.0000000000E+00   0.0000000000E+00   0.0000000000E+00   0.8093440304E+00   0.2164379984E+00   0.3909280634E+00  -0.5325759171E-01  -0.2460199134E-01  -0.1136656843E+00
   0.7361823629E-02  -0.8347406018E+00   0.2030937587E+00  -0.1731846371E-02   0.4595080715E-01   0.3093755711E-02   0.0000000000E+00   0.0000000000E+00   0.0000000000E+00   0.1108627236E+01   0.3983201703E+00   0.6756440513E+00  -0.1372712185E-01  -0.1130557066E-01  -0.1582840895E-01
   0.4313708692E-02  -0.7046895315E+00   0.2028971892E+00  -0.1668885308E-02   0.4528662649E-01   0.2897186197E-02   0.0000000000E+00   0.0000000000E+00   0.0000000000E+00   0.8418124379E-01  -0.6365632983E+00  -0.3895998829E+00  -0.5974868596E-01  -0.1432554113E-01  -0.5568991463E-01
  -0.6217645541E+00  -0.7917832482E+00   0.9088777794E-03  -0.5219950070E-02   0.4056986682E-01   0.9088777794E-03   0.0000000000E+00   0.0000000000E+00   0.0000000000E+00  -0.2514778932E+00  -0.1344605910E+01  -0.4279378953E+00   0.3637315215E+00   0.1301560698E+00   0.3372425128E-01
  -0.6220762090E+00  -0.7912019312E+00   0.2016435149E+00  -0.5531605009E-02   0.4115118379E-01   0.1643511874E-02   0.0000000000E+00   0.0000000000E+00   0.0000000000E+00   0.4411078821E+00  -0.6014577397E+00   0.2849207109E+00   0.3288918867E+00   0.8730446390E-01   0.1095407169E-01
  -0.4080594873E+00  -0.8826570005E+00   0.2075863636E-02  -0.3862629326E-02   0.4398172146E-01   0.2075863636E-02   0.0000000000E+00   0.0000000000E+00   0.0000000000E+00  -0.2374169088E+00  -0.1134958686E+01  -0.5047425987E+00   0.3780667816E+00   0.8328486620E-01   0.1520990151E-01
  -0.4083885229E+00  -0.8823933171E+00   0.2024320310E+00  -0.4191664890E-02   0.4424540495E-01   0.2432027966E-02   0.0000000000E+00   0.0000000000E+00   0.0000000000E+00   0.3429203348E+00  -0.5687347280E+00   0.6141945785E-01   0.3228198438E+00   0.6085534363E-01   0.1004372147E-01
  -0.2021929255E+00  -0.9421036064E+00   0.2910625964E-02  -0.2846398468E-02   0.4612405857E-01   0.2910625964E-02   0.0000000000E+00   0.0000000000E+00   0.0000000000E+00  -0.1701976850E+00  -0.8179065961E+00  -0.4544752294E+00   0.2273767637E+00   0.5624654080E-01   0.5308177589E-02
  -0.2024006411E+00  -0.9420398796E+00   0.2029847694E+00  -0.3054114109E-02   0.4618778541E-01   0.2984766417E-02   0.0000000000E+00   0.0000000000E+00   0.0000000000E+00   0.5597420999E+00  -0.1875125547E+00   0.2197756118E+00   0.1907887433E+00   0.3892906653E-01   0.7905712635E-02
   0.1715876032E-02  -0.9730831531E+00   0.3168349253E-02  -0.2010687968E-02   0.4668758688E-01   0.3168349253E-02   0.0000000000E+00   0.0000000000E+00   0.0000000000E+00  -0.2248918530E+00  -0.7874057305E+00  -0.5042679139E+00   0.1408384241E-02  -0.1022371422E-01   0.3261666301E-03
   0.1696559904E-02  -0.9731021395E+00   0.2031671541E+00  -0.2030004096E-02   0.4666860052E-01   0.3167151124E-02   0.0000000000E+00   0.0000000000E+00   0.0000000000E+00   0.6073988186E+00  -0.7833650922E-01   0.2604677415E+00   0.2658708660E-02  -0.8805718911E-02   0.6859397857E-02
  -0.2130286766E+00  -0.1099101396E+01   0.2914983346E-02  -0.3046400609E-02   0.4689422428E-01   0.2914983346E-02   0.0000000000E+00   0.0000000000E+00   0.0000000000E+00  -0.1136304846E+00  -0.7581337331E+00  -0.3347616673E+00   0.1842586572E+00   0.4346802195E-01   0.9839272511E-02
  -0.2337566327E-02  -0.1132867788E+01   0.3154125717E-02  -0.2227633327E-02   0.4741158236E-01   0.3154125717E-02   0.0000000000E+00   0.0000000000E+00   0.0000000000E+00  -0.2133076769E+00  -0.7894566890E+00  -0.4307028580E+00  -0.1167415674E-01  -0.7458088464E-02   0.2906798235E-02
  -0.2132018781E+00  -0.1098936509E+01   0.2031137903E+00  -0.3219602133E-02   0.4705911135E-01   0.3113787320E-02   0.0000000000E+00   0.0000000000E+00   0.0000000000E+00   0.5227167521E+00  -0.1940626828E+00   0.2617069850E+00   0.1563068343E+00   0.2926081319E-01   0.6709426115E-02
  -0.2364405225E-02  -0.1132764231E+01   0.2032913365E+00  -0.2254472225E-02   0.4751513866E-01   0.3291333483E-02   0.0000000000E+00   0.0000000000E+00   0.0000000000E+00   0.5828014771E+00  -0.8515104222E-01   0.3147860922E+00  -0.1504204343E-01  -0.6793672412E-02   0.3089443708E-02
  -0.2196166928E+00  -0.1270802620E+01   0.2964900895E-02  -0.3233876814E-02   0.4782867017E-01   0.2964900895E-02   0.0000000000E+00   0.0000000000E+00   0.0000000000E+00  -0.1478112252E+00  -0.8037773537E+00  -0.3116092405E+00   0.1523445462E+00   0.4296669254E-01   0.2094709282E-01
  -0.4893986833E-02  -0.1304667419E+01   0.3207371685E-02  -0.2433953833E-02   0.4826730130E-01   0.3207371685E-02   0.0000000000E+00   0.0000000000E+00   0.0000000000E+00  -0.2757658842E+00  -0.8752747888E+00  -0.4415645897E+00  -0.8512910476E-02  -0.4568107850E-02   0.1341695390E-01
  -0.2197542288E+00  -0.1270558187E+01   0.2032897534E+00  -0.3371412801E-02   0.4807310315E-01   0.3289750385E-02   0.0000000000E+00   0.0000000000E+00   0.0000000000E+00   0.4050668754E+00  -0.3064961128E+00   0.2099941202E+00   0.1343321575E+00   0.2662088604E-01   0.1091293193E-01
  -0.4919216245E-02  -0.1304468089E+01   0.2034709682E+00  -0.2459183245E-02   0.4846663107E-01   0.3470965237E-02   0.0000000000E+00   0.0000000000E+00   0.0000000000E+00   0.5271109689E+00  -0.1399442471E+00   0.3229771060E+00  -0.1172879129E-01  -0.4648875862E-02   0.6944728442E-02
  -0.2233440430E+00  -0.1450243979E+01   0.3069368242E-02  -0.3423900039E-02   0.4889140111E-01   0.3069368242E-02   0.0000000000E+00   0.0000000000E+00   0.0000000000E+00  -0.1765308285E+00  -0.8471599009E+00  -0.2897580724E+00   0.1255300820E+00   0.3974780331E-01   0.2442291852E-01
  -0.6442378756E-02  -0.1482426225E+01   0.3304383218E-02  -0.2645022756E-02   0.4923743464E-01   0.3304383218E-02   0.0000000000E+00   0.0000000000E+00   0.0000000000E+00  -0.3234696545E+00  -0.9469928329E+00  -0.4414756652E+00  -0.7759990721E-02   0.8033343807E-04   0.1910954549E-01
  -0.2234567954E+00  -0.1449936127E+01   0.2035100535E+00  -0.3536652364E-02   0.4919925328E-01   0.3510050496E-02   0.0000000000E+00   0.0000000000E+00   0.0000000000E+00   0.3422706435E+00  -0.3729691590E+00   0.2035776116E+00   0.1135500602E+00   0.2357638189E-01   0.1245997291E-01
  -0.6467212215E-02  -0.1482154999E+01   0.2036873584E+00  -0.2669856215E-02   0.4950866069E-01   0.3687355393E-02   0.0000000000E+00   0.0000000000E+00   0.0000000000E+00   0.4607523616E+00  -0.2134521196E+00   0.3128908459E+00  -0.1029536718E-01  -0.1565431838E-02   0.9665919924E-02
  -0.2254611694E+00  -0.1633520873E+01   0.3219207667E-02  -0.3636165405E-02   0.5005666721E-01   0.3219207667E-02   0.0000000000E+00   0.0000000000E+00   0.0000000000E+00  -0.1756882373E+00  -0.8619190987E+00  -0.2430311477E+00   0.1042224146E+00   0.3642040737E-01   0.2656754356E-01
  -0.7471340522E-02  -0.1662898794E+01   0.3448891098E-02  -0.2878739522E-02   0.5030642649E-01   0.3448891098E-02   0.0000000000E+00   0.0000000000E+00   0.0000000000E+00  -0.3582107414E+00  -0.1005040839E+01  -0.4333934136E+00  -0.6986634616E-02   0.4454228539E-02   0.2014909470E-01
  -0.2255543996E+00  -0.1633160890E+01   0.2037674509E+00  -0.3729395614E-02   0.5041665020E-01   0.3767447915E-02   0.0000000000E+00   0.0000000000E+00   0.0000000000E+00   0.2508550783E+00  -0.4724964767E+00   0.1622914786E+00   0.9519577860E-01   0.2087003169E-01   0.1361677437E-01
  -0.7493902177E-02  -0.1662573891E+01   0.2039406931E+00  -0.2901301177E-02   0.5063132915E-01   0.3940690067E-02   0.0000000000E+00   0.0000000000E+00   0.0000000000E+00   0.3990859000E+00  -0.2865051205E+00   0.3001380040E+00  -0.9348857052E-02   0.1281921893E-02   0.1057331497E-01
  -0.2267472906E+00  -0.1818652233E+01   0.3423380202E-02  -0.3862724606E-02   0.5130425720E-01   0.3423380202E-02   0.0000000000E+00   0.0000000000E+00   0.0000000000E+00  -0.1610310194E+00  -0.8613291211E+00  -0.1881626438E+00   0.8360545898E-01   0.3160220433E-01   0.2381400978E-01
  -0.8243190727E-02  -0.1844575554E+01   0.3642598235E-02  -0.3122071727E-02   0.5145963637E-01   0.3642598235E-02   0.0000000000E+00   0.0000000000E+00   0.0000000000E+00  -0.3847144901E+00  -0.1052303017E+01  -0.4215188870E+00  -0.1181931903E-01   0.9224194169E-02   0.1827163647E-01
  -0.2268255689E+00  -0.1818247612E+01   0.2040664231E+00  -0.3941002909E-02   0.5170887764E-01   0.4066420109E-02   0.0000000000E+00   0.0000000000E+00   0.0000000000E+00   0.1676244512E+00  -0.5645166385E+00   0.1225205152E+00   0.7606504261E-01   0.1773747371E-01   0.1222975358E-01
  -0.8264081816E-02  -0.1844210453E+01   0.2042318181E+00  -0.3142962816E-02   0.5182473689E-01   0.4231815105E-02   0.0000000000E+00   0.0000000000E+00   0.0000000000E+00   0.3345768379E+00  -0.3627447600E+00   0.2786638020E+00  -0.1397601779E-01   0.4385942562E-02   0.1010732418E-01
  -0.2276273330E+00  -0.2004657910E+01   0.3688952690E-02  -0.4095117957E-02   0.5262025047E-01   0.3688952690E-02   0.0000000000E+00   0.0000000000E+00   0.0000000000E+00  -0.1230669383E+00  -0.8397769230E+00  -0.1190720761E+00   0.6935289021E-01   0.2563738512E-01   0.2165620902E-01
  -0.8881854853E-02  -0.2026750900E+01   0.3885435029E-02  -0.3364379853E-02   0.5268587959E-01   0.3885435029E-02   0.0000000000E+00   0.0000000000E+00   0.0000000000E+00  -0.4275261201E+00  -0.1114209566E+01  -0.4304402834E+00  -0.1588576200E-01   0.1506372794E-01   0.1395434696E-01
  -0.2276930812E+00  -0.2004214242E+01   0.2044111605E+00  -0.4160866190E-02   0.5306391823E-01   0.4411157483E-02   0.0000000000E+00   0.0000000000E+00   0.0000000000E+00   0.1031295657E+00  -0.6409445665E+00   0.9216346869E-01   0.6159032735E-01   0.1420610245E-01   0.1120407451E-01
  -0.8901436652E-02  -0.2026356794E+01   0.2045612202E+00  -0.3383961652E-02   0.5307998603E-01   0.4561217201E-02   0.0000000000E+00   0.0000000000E+00   0.0000000000E+00   0.2727826454E+00  -0.4359289845E+00   0.2544915727E+00  -0.1863488737E-01   0.8113413045E-02   0.8273400936E-02
  -0.2289750658E+00  -0.2190051298E+01   0.3996212165E-02  -0.4353635824E-02   0.5398871158E-01   0.3996212165E-02   0.0000000000E+00   0.0000000000E+00   0.0000000000E+00  -0.9497406214E-01  -0.8260211110E+00  -0.6264525316E-01   0.5936069710E-01   0.2095270677E-01   0.1925147092E-01
  -0.1200713064E-01  -0.2204993297E+01   0.4173533668E-02  -0.3632826644E-02   0.5395240281E-01   0.4173533668E-02   0.0000000000E+00   0.0000000000E+00   0.0000000000E+00  -0.4889365489E+00  -0.1193507815E+01  -0.4637080081E+00  -0.2236429114E-01   0.2480672814E-01   0.5792423029E-02
  -0.2290280178E+00  -0.2189573365E+01   0.2047897600E+00  -0.4406587801E-02   0.5446664493E-01   0.4789757020E-02   0.0000000000E+00   0.0000000000E+00   0.0000000000E+00   0.3273819018E-01  -0.7218144253E+00   0.5260554894E-01   0.5035551709E-01   0.1182527897E-01   0.1009292057E-01
  -0.1202443294E-01  -0.2204581075E+01   0.2049229264E+00  -0.3650128936E-02   0.5436462514E-01   0.4922923422E-02   0.0000000000E+00   0.0000000000E+00   0.0000000000E+00   0.2209633595E+00  -0.4981228775E+00   0.2341185574E+00  -0.2600680467E-01   0.1432199024E-01   0.4007247313E-02
  -0.2299510506E+00  -0.2376507162E+01   0.4358460629E-02  -0.4614856638E-02   0.5541479812E-01   0.4358460629E-02   0.0000000000E+00   0.0000000000E+00   0.0000000000E+00  -0.6138448318E-01  -0.8038658579E+00  -0.4705726869E-02   0.5018421595E-01   0.1648737128E-01   0.1509280457E-01
  -0.1332271018E-01  -0.2387513270E+01   0.4528820582E-02  -0.3901853177E-02   0.5530013005E-01   0.4528820582E-02   0.0000000000E+00   0.0000000000E+00   0.0000000000E+00  -0.5683658301E+00  -0.1286874323E+01  -0.5186961672E+00  -0.3572712051E-01   0.3702642135E-01  -0.3431229441E-02
  -0.2299918248E+00  -0.2375999281E+01   0.2052125105E+00  -0.4655630753E-02   0.5592267910E-01   0.5212507474E-02   0.0000000000E+00   0.0000000000E+00   0.0000000000E+00  -0.2384177085E-01  -0.7859921549E+00   0.2285473502E-01   0.3884108638E-01   0.9980874291E-02   0.7774941978E-02
  -0.1333746600E-01  -0.2387093541E+01   0.2053402340E+00  -0.3916608998E-02   0.5571985874E-01   0.5340231034E-02   0.0000000000E+00   0.0000000000E+00   0.0000000000E+00   0.1829017864E+00  -0.5426417991E+00   0.2234680550E+00  -0.4059364575E-01   0.2227387678E-01  -0.1315275365E-02
  -0.2310324200E+00  -0.2563749540E+01   0.4780316777E-02  -0.4875409995E-02   0.5688811998E-01   0.4780316777E-02   0.0000000000E+00   0.0000000000E+00   0.0000000000E+00  -0.4294584895E-01  -0.7946750198E+00   0.3353973148E-01   0.4132424892E-01   0.1307534983E-01   0.4833324995E-02
  -0.1456715744E-01  -0.2571223506E+01   0.4950579033E-02  -0.4169238436E-02   0.5669998361E-01   0.4950579033E-02   0.0000000000E+00   0.0000000000E+00   0.0000000000E+00  -0.6980911052E+00  -0.1424635455E+01  -0.6266447330E+00  -0.5938354530E-01   0.4961539395E-01  -0.2234346930E-01
  -0.2310627053E+00  -0.2563216221E+01   0.2056833890E+00  -0.4905695252E-02   0.5742143897E-01   0.5683386041E-02   0.0000000000E+00   0.0000000000E+00   0.0000000000E+00  -0.9931669032E-01  -0.8669875224E+00  -0.3060701436E-01   0.2804211114E-01   0.9548472032E-02   0.2563360124E-02
  -0.1458036615E-01  -0.2570807516E+01   0.2058122688E+00  -0.4182447149E-02   0.5711597356E-01   0.5812265750E-02   0.0000000000E+00   0.0000000000E+00   0.0000000000E+00   0.1571847117E+00  -0.5695898786E+00   0.2215482350E+00  -0.6429129501E-01   0.3106106670E-01  -0.1230765796E-01
  -0.2324822624E+00  -0.2751616345E+01   0.5245547306E-02  -0.5101852395E-02   0.5839790473E-01   0.5245547306E-02   0.0000000000E+00   0.0000000000E+00   0.0000000000E+00   0.1953868097E-01  -0.7376395388E+00   0.1132435547E+00   0.2953764007E-01   0.1173033874E-01   0.2064221959E-01
  -0.1621718472E-01  -0.2755558854E+01   0.5450140358E-02  -0.4410022716E-02   0.5812942623E-01   0.5450140358E-02   0.0000000000E+00   0.0000000000E+00   0.0000000000E+00  -0.5968121108E+00  -0.1317440005E+01  -0.5067810693E+00  -0.8075720792E-01   0.6137847200E-01  -0.2297512568E-01
  -0.2325136011E+00  -0.2751062385E+01   0.2061894535E+00  -0.5133191105E-02   0.5895186502E-01   0.6189450509E-02   0.0000000000E+00   0.0000000000E+00   0.0000000000E+00  -0.4385580312E-01  -0.8116544840E+00   0.4580339005E-01   0.1430543206E-01   0.1121523872E-01   0.1249856717E-01
  -0.1623816788E-01  -0.2755153317E+01   0.2063443008E+00  -0.4431005882E-02   0.5853496331E-01   0.6344297757E-02   0.0000000000E+00   0.0000000000E+00   0.0000000000E+00   0.1190756445E+00  -0.6013314917E+00   0.2037289399E+00  -0.8608532903E-01   0.4000430934E-01  -0.1327393520E-01
  -0.2322540416E+00  -0.2940067652E+01   0.5555718316E-02  -0.5283309643E-02   0.5993234768E-01   0.5555718316E-02   0.0000000000E+00   0.0000000000E+00   0.0000000000E+00  -0.1869176290E+00  -0.9106062313E+00  -0.1519205618E-01   0.2091303204E-01   0.1464920067E-01   0.4536462846E-01
  -0.1612359056E-01  -0.2940448629E+01   0.5862822005E-02  -0.4702963557E-02   0.5955137053E-01   0.5862822005E-02   0.0000000000E+00   0.0000000000E+00   0.0000000000E+00  -0.5563665745E+00  -0.1243712566E+01  -0.4065355777E+00  -0.1018605697E+00   0.8629170547E-01  -0.8890244491E-02
  -0.2322903416E+00  -0.2939500226E+01   0.2066200230E+00  -0.5319609597E-02   0.6049977379E-01   0.6620019997E-02   0.0000000000E+00   0.0000000000E+00   0.0000000000E+00  -0.3623115740E+00  -0.1094564692E+01  -0.1954734647E+00   0.3222954130E-02   0.1616885457E-01   0.2837839627E-01
  -0.1614776048E-01  -0.2940046870E+01   0.2068439609E+00  -0.4727133484E-02   0.5995312983E-01   0.6843957945E-02   0.0000000000E+00   0.0000000000E+00   0.0000000000E+00  -0.2733504739E-02  -0.6934882198E+00   0.1408814153E+00  -0.1075067784E+00   0.5761648601E-01  -0.4860113052E-02
  -0.4260219995E+00  -0.1046490794E+01   0.2188929354E-02  -0.4018551503E-02   0.4504083568E-01   0.2188929354E-02   0.0000000000E+00   0.0000000000E+00   0.0000000000E+00   0.1516701548E-02  -0.8479525223E+00  -0.2048764691E+00   0.3272045255E+00   0.7755429029E-01   0.1220516539E-01
  -0.4262918767E+00  -0.1046195084E+01   0.2026226023E+00  -0.4288428667E-02   0.4533654633E-01   0.2622599251E-02   0.0000000000E+00   0.0000000000E+00   0.0000000000E+00   0.3810716346E+00  -0.4811390986E+00   0.1655811627E+00   0.2844976849E+00   0.5243508630E-01   0.7876188310E-02
  -0.4360546178E+00  -0.1225164403E+01   0.2293550735E-02  -0.4142612791E-02   0.4629410742E-01   0.2293550735E-02   0.0000000000E+00   0.0000000000E+00   0.0000000000E+00  -0.1625765542E+00  -0.9741905181E+00  -0.2959613129E+00   0.2702012683E+00   0.8711878434E-01   0.2299045897E-01
  -0.4362723862E+00  -0.1224842541E+01   0.2028342471E+00  -0.4360381173E-02   0.4661596900E-01   0.2834244069E-02   0.0000000000E+00   0.0000000000E+00   0.0000000000E+00   0.3019992661E+00  -0.5297186116E+00   0.1548371267E+00   0.2428653969E+00   0.5411510416E-01   0.1308222395E-01
  -0.4414420392E+00  -0.1410490870E+01   0.2474539008E-02  -0.4282739187E-02   0.4765533996E-01   0.2474539008E-02   0.0000000000E+00   0.0000000000E+00   0.0000000000E+00  -0.1424094537E+00  -0.9368667712E+00  -0.2245471225E+00   0.2232290833E+00   0.7486509179E-01   0.1638425325E-01
  -0.4416232380E+00  -0.1410140365E+01   0.2031011269E+00  -0.4463938006E-02   0.4800584529E-01   0.3101123921E-02   0.0000000000E+00   0.0000000000E+00   0.0000000000E+00   0.2283571076E+00  -0.5887884417E+00   0.1319986958E+00   0.2052874056E+00   0.4504903010E-01   0.9483287582E-02
  -0.4444135749E+00  -0.1598946084E+01   0.2706703754E-02  -0.4453005945E-02   0.4908109618E-01   0.2706703754E-02   0.0000000000E+00   0.0000000000E+00   0.0000000000E+00  -0.1727664703E+00  -0.9568902645E+00  -0.2115952419E+00   0.1836767167E+00   0.6135962221E-01   0.1621634365E-01
  -0.4445669584E+00  -0.1598565420E+01   0.2034095193E+00  -0.4606389391E-02   0.4946176026E-01   0.3409516285E-02   0.0000000000E+00   0.0000000000E+00   0.0000000000E+00   0.1597347040E+00  -0.6481031871E+00   0.1063159734E+00   0.1720369757E+00   0.3586920042E-01   0.8953689809E-02
  -0.4461955577E+00  -0.1788984949E+01   0.2989664714E-02  -0.4648789720E-02   0.5055029122E-01   0.2989664714E-02   0.0000000000E+00   0.0000000000E+00   0.0000000000E+00  -0.1856814113E+00  -0.9640877389E+00  -0.1892766645E+00   0.1511398835E+00   0.4729167084E-01   0.1280911366E-01
  -0.4463275621E+00  -0.1788573238E+01   0.2037572746E+00  -0.4780794121E-02   0.5096200195E-01   0.3757271590E-02   0.0000000000E+00   0.0000000000E+00   0.0000000000E+00   0.9957542011E-01  -0.7027709908E+00   0.8149942540E-01   0.1437825824E+00   0.2711793773E-01   0.6891269189E-02
  -0.4474095758E+00  -0.1979856173E+01   0.3322757651E-02  -0.4862671767E-02   0.5205329722E-01   0.3322757651E-02   0.0000000000E+00   0.0000000000E+00   0.0000000000E+00  -0.1938961419E+00  -0.9717512382E+00  -0.1704857207E+00   0.1273065663E+00   0.3734923332E-01   0.1205944331E-01
  -0.4475236954E+00  -0.1979413292E+01   0.2041438787E+00  -0.4976791397E-02   0.5249617788E-01   0.4143875710E-02   0.0000000000E+00   0.0000000000E+00   0.0000000000E+00   0.5901648876E-01  -0.7424286310E+00   0.6830976929E-01   0.1225292872E+00   0.2115432169E-01   0.6312969246E-02
  -0.4485335734E+00  -0.2170929088E+01   0.3687238891E-02  -0.5105057449E-02   0.5358492188E-01   0.3687238891E-02   0.0000000000E+00   0.0000000000E+00   0.0000000000E+00  -0.2093538304E+00  -0.9877556193E+00  -0.1612957982E+00   0.1093031529E+00   0.3158575172E-01   0.1103775309E-01
  -0.4486302107E+00  -0.2170455580E+01   0.2045581292E+00  -0.5201694745E-02   0.5405843047E-01   0.4558126171E-02   0.0000000000E+00   0.0000000000E+00   0.0000000000E+00   0.1512363158E-01  -0.7863176393E+00   0.4938145796E-01   0.1060627484E+00   0.1802528703E-01   0.5810484811E-02
  -0.4494927790E+00  -0.2362469665E+01   0.4096113070E-02  -0.5357113030E-02   0.5514479521E-01   0.4096113070E-02   0.0000000000E+00   0.0000000000E+00   0.0000000000E+00  -0.2099841230E+00  -0.9902924624E+00  -0.1423997630E+00   0.9234024823E-01   0.3006260241E-01   0.9567374440E-02
  -0.4495721327E+00  -0.2361966396E+01   0.2050080324E+00  -0.5436466651E-02   0.5564806405E-01   0.5008029355E-02   0.0000000000E+00   0.0000000000E+00   0.0000000000E+00  -0.6437319844E-02  -0.8087305328E+00   0.4802914471E-01   0.9028129758E-01   0.1769246725E-01   0.5037309642E-02
  -0.4504853140E+00  -0.2554524952E+01   0.4550008160E-02  -0.5612100015E-02   0.5673116807E-01   0.4550008160E-02   0.0000000000E+00   0.0000000000E+00   0.0000000000E+00  -0.2496355682E+00  -0.1032919278E+01  -0.1669262614E+00   0.7804861471E-01   0.3256347104E-01   0.1561778895E-02
  -0.4505488208E+00  -0.2553994017E+01   0.2054948395E+00  -0.5675606795E-02   0.5726210280E-01   0.5494836537E-02   0.0000000000E+00   0.0000000000E+00   0.0000000000E+00  -0.2860257648E-01  -0.8317948469E+00   0.4176701777E-01   0.7715127480E-01   0.2024208256E-01   0.1453837766E-02
  -0.4516427318E+00  -0.2747072005E+01   0.5052525223E-02  -0.5837241758E-02   0.5833885536E-01   0.5052525223E-02   0.0000000000E+00   0.0000000000E+00   0.0000000000E+00  -0.1361058158E+00  -0.9216910959E+00  -0.4569747778E-01   0.4568993559E-01   0.3389401654E-01   0.1417169911E-01
  -0.4516957962E+00  -0.2746517950E+01   0.2060165704E+00  -0.5890306169E-02   0.5889290965E-01   0.6016567438E-02   0.0000000000E+00   0.0000000000E+00   0.0000000000E+00   0.3338465441E-01  -0.7670927735E+00   0.1156565917E+00   0.4710307587E-01   0.2288449056E-01   0.1007627561E-01
  -0.4515942059E+00  -0.2940042758E+01   0.5423115078E-02  -0.5912961884E-02   0.5995724156E-01   0.5423115078E-02   0.0000000000E+00   0.0000000000E+00   0.0000000000E+00  -0.2003008351E+00  -0.9580386244E+00  -0.5204287924E-01   0.1380125112E-01   0.1955493115E-01   0.3622933912E-01
  -0.4516482842E+00  -0.2939470286E+01   0.2064741321E+00  -0.5967040229E-02   0.6052971352E-01   0.6474129126E-02   0.0000000000E+00   0.0000000000E+00   0.0000000000E+00  -0.2583652336E+00  -0.1028684527E+01  -0.1176538051E+00   0.1651242130E-01   0.1627597134E-01   0.2490521181E-01
  -0.6454628524E+00  -0.9783991400E+00   0.1127154213E-02  -0.5259555371E-02   0.4221823000E-01   0.1127154213E-02   0.0000000000E+00   0.0000000000E+00   0.0000000000E+00  -0.3663657028E+00  -0.1437561091E+01  -0.5024916942E+00   0.3027174711E+00   0.1143992958E+00   0.4185001293E-01
  -0.6457318433E+00  -0.9778853354E+00   0.2019188213E+00  -0.5528546272E-02   0.4273203463E-01   0.1918818263E-02   0.0000000000E+00   0.0000000000E+00   0.0000000000E+00   0.3642316122E+00  -0.6617632327E+00   0.2436922368E+00   0.2691529431E+00   0.7364794965E-01   0.2400806383E-01
  -0.6563381368E+00  -0.1172492115E+01   0.1325277266E-02  -0.5229573773E-02   0.4402771501E-01   0.1325277266E-02   0.0000000000E+00   0.0000000000E+00   0.0000000000E+00  -0.3021955859E+00  -0.1287470066E+01  -0.3595562706E+00   0.2491034881E+00   0.8424333656E-01   0.3183052913E-01
  -0.6565736231E+00  -0.1172019378E+01   0.2021897130E+00  -0.5465060128E-02   0.4450045236E-01   0.2189710027E-02   0.0000000000E+00   0.0000000000E+00   0.0000000000E+00   0.8280398523E-01  -0.8861755030E+00   0.2839295323E-01   0.2235636860E+00   0.5243365844E-01   0.1951173179E-01
  -0.6617159439E+00  -0.1367455094E+01   0.1663918392E-02  -0.5271215882E-02   0.4585209626E-01   0.1663918392E-02   0.0000000000E+00   0.0000000000E+00   0.0000000000E+00  -0.2565769984E+00  -0.1202504217E+01  -0.2818317299E+00   0.2170688481E+00   0.6016365544E-01   0.9896008151E-02
  -0.6619236373E+00  -0.1367001003E+01   0.2025540651E+00  -0.5478909312E-02   0.4630618744E-01   0.2554062102E-02   0.0000000000E+00   0.0000000000E+00   0.0000000000E+00   0.6134114435E-01  -0.8802669876E+00   0.3407195622E-01   0.1970106825E+00   0.3624065118E-01   0.6873256040E-02
  -0.6647046179E+00  -0.1562722540E+01   0.2051359815E-02  -0.5367573919E-02   0.4764379979E-01   0.2051359815E-02   0.0000000000E+00   0.0000000000E+00   0.0000000000E+00  -0.2307953379E+00  -0.1132916091E+01  -0.2270905238E+00   0.1871934560E+00   0.4290762272E-01   0.6232233387E-02
  -0.6648906829E+00  -0.1562270060E+01   0.2029562477E+00  -0.5553638948E-02   0.4809627992E-01   0.2956244660E-02   0.0000000000E+00   0.0000000000E+00   0.0000000000E+00   0.1663019213E-01  -0.8913345708E+00   0.1404680331E-01   0.1716789341E+00   0.2493308228E-01   0.4585736161E-02
  -0.6666364371E+00  -0.1758433940E+01   0.2474775516E-02  -0.5510539068E-02   0.4939770994E-01   0.2474775516E-02   0.0000000000E+00   0.0000000000E+00   0.0000000000E+00  -0.2201165815E+00  -0.1089330350E+01  -0.1957208902E+00   0.1655357663E+00   0.2718643338E-01   0.2223931332E-02
  -0.6668047707E+00  -0.1757971295E+01   0.2033885498E+00  -0.5678872658E-02   0.4986035518E-01   0.3388546779E-02   0.0000000000E+00   0.0000000000E+00   0.0000000000E+00   0.4963462621E-02  -0.8763635747E+00   0.2044196193E-01   0.1529181528E+00   0.1513759194E-01   0.1955620499E-02
  -0.6680720811E+00  -0.1954600688E+01   0.2922824162E-02  -0.5688405080E-02   0.5111897166E-01   0.2922824162E-02   0.0000000000E+00   0.0000000000E+00   0.0000000000E+00  -0.2161786333E+00  -0.1059991833E+01  -0.1753762156E+00   0.1514807950E+00   0.1331765032E-01   0.3606414319E-02
  -0.6682249090E+00  -0.1954119555E+01   0.2038442712E+00  -0.5841233046E-02   0.5160010466E-01   0.3844268169E-02   0.0000000000E+00   0.0000000000E+00   0.0000000000E+00  -0.7696564407E-02  -0.8682255040E+00   0.2221518405E-01   0.1404010798E+00   0.6799227077E-02   0.2535230245E-02
  -0.6693108910E+00  -0.2151071384E+01   0.3378165530E-02  -0.5901895954E-02   0.5281679586E-01   0.3378165530E-02   0.0000000000E+00   0.0000000000E+00   0.0000000000E+00  -0.2284769830E+00  -0.1053151486E+01  -0.1713430915E+00   0.1457664046E+00  -0.1835288809E-03   0.6298890004E-02
  -0.6694479444E+00  -0.2150565731E+01   0.2043131268E+00  -0.6038949393E-02   0.5332244872E-01   0.4313123846E-02   0.0000000000E+00   0.0000000000E+00   0.0000000000E+00  -0.3823648231E-01  -0.8830522178E+00   0.6335361952E-02   0.1348297696E+00  -0.1097448935E-02   0.4060575507E-02
  -0.6704089766E+00  -0.2347875157E+01   0.3848985122E-02  -0.6136370617E-02   0.5450197274E-01   0.3848985122E-02   0.0000000000E+00   0.0000000000E+00   0.0000000000E+00  -0.2432042738E+00  -0.1055427736E+01  -0.1718608575E+00   0.1453011466E+00  -0.1274713134E-01   0.9132047196E-02
  -0.6705291576E+00  -0.2347340538E+01   0.2047997904E+00  -0.6256551647E-02   0.5503659193E-01   0.4799787392E-02   0.0000000000E+00   0.0000000000E+00   0.0000000000E+00  -0.7428596836E-01  -0.9091211443E+00  -0.1682979696E-01   0.1337272158E+00  -0.8260089623E-02   0.5772023176E-02
  -0.6714516525E+00  -0.2545053639E+01   0.4337135219E-02  -0.6382847466E-02   0.5618628087E-01   0.4337135219E-02   0.0000000000E+00   0.0000000000E+00   0.0000000000E+00  -0.2711510324E+00  -0.1078507451E+01  -0.1885722089E+00   0.1562643046E+00  -0.2366476290E-01   0.9651127334E-02
  -0.6715543303E+00  -0.2544487520E+01   0.2053052085E+00  -0.6485525252E-02   0.5675240026E-01   0.5305205478E-02   0.0000000000E+00   0.0000000000E+00   0.0000000000E+00  -0.1283120035E+00  -0.9590742991E+00  -0.6031514883E-01   0.1424702663E+00  -0.1415436315E-01   0.6760372679E-02
  -0.6724742508E+00  -0.2742601780E+01   0.4856488532E-02  -0.6611928804E-02   0.5787835020E-01   0.4856488532E-02   0.0000000000E+00   0.0000000000E+00   0.0000000000E+00  -0.2324386401E+00  -0.1039702591E+01  -0.1448123731E+00   0.1466600462E+00  -0.2920825417E-01   0.1361937079E-01
  -0.6725584391E+00  -0.2742004671E+01   0.2058349823E+00  -0.6696117070E-02   0.5847545948E-01   0.5834979334E-02   0.0000000000E+00   0.0000000000E+00   0.0000000000E+00  -0.1471585017E+00  -0.9760101543E+00  -0.7269718225E-01   0.1317125104E+00  -0.1623063032E-01   0.9753295041E-02
  -0.6726045802E+00  -0.2940422482E+01   0.5359685993E-02  -0.6628056243E-02   0.5957751813E-01   0.5359685993E-02   0.0000000000E+00   0.0000000000E+00   0.0000000000E+00  -0.2576199517E+00  -0.1056365186E+01  -0.1521457500E+00   0.1352222959E+00  -0.5302990782E-01   0.2143063373E-01
  -0.6726867285E+00  -0.2939796825E+01   0.2063647928E+00  -0.6710204463E-02   0.6020317467E-01   0.6364789784E-02   0.0000000000E+00   0.0000000000E+00   0.0000000000E+00  -0.3012527991E+00  -0.1120520033E+01  -0.2088746526E+00   0.1192459046E+00  -0.2950687395E-01   0.1552300490E-01
  -0.8774151078E+00  -0.9032766279E+00  -0.3065799864E-04  -0.6705151809E-02   0.3950845610E-01  -0.3065799864E-04   0.0000000000E+00   0.0000000000E+00   0.0000000000E+00  -0.5754264793E+00  -0.1771508647E+01  -0.5840625580E+00   0.1863543082E+00   0.6514168708E-01   0.4583601780E-01
  -0.8776224059E+00  -0.9026516045E+00   0.2011391328E+00  -0.6912449911E-02   0.4013347951E-01   0.1139129759E-02   0.0000000000E+00   0.0000000000E+00   0.0000000000E+00   0.9107454724E-02  -0.1133187905E+01   0.1964931939E-01   0.1901580940E+00   0.4247931354E-01   0.2350599141E-01
  -0.8821577022E+00  -0.1119629089E+01   0.5197388645E-03  -0.6464798238E-02   0.4197508054E-01   0.5197388645E-03   0.0000000000E+00   0.0000000000E+00   0.0000000000E+00  -0.2908857655E+00  -0.1390000959E+01  -0.2825331805E+00   0.1616247283E+00   0.3911666990E-01   0.6460706807E-02
  -0.8823597232E+00  -0.1119077626E+01   0.2016298351E+00  -0.6666819244E-02   0.4252654411E-01   0.1629832095E-02   0.0000000000E+00   0.0000000000E+00   0.0000000000E+00   0.5712632553E-01  -0.1013481389E+01   0.7546005462E-01   0.1674064078E+00   0.2479522666E-01   0.4042636013E-02
  -0.8845484192E+00  -0.1324910441E+01   0.1031715992E-02  -0.6375366173E-02   0.4420323858E-01   0.1031715992E-02   0.0000000000E+00   0.0000000000E+00   0.0000000000E+00  -0.2410708020E+00  -0.1285309337E+01  -0.2254056170E+00   0.1588559890E+00   0.3756127143E-01   0.6464466578E-02
  -0.8847475269E+00  -0.1324397557E+01   0.2021023559E+00  -0.6574473873E-02   0.4471612317E-01   0.2102352917E-02   0.0000000000E+00   0.0000000000E+00   0.0000000000E+00   0.4541487208E-01  -0.9850602794E+00   0.6455616181E-01   0.1610423441E+00   0.2255540527E-01   0.4065259465E-02
  -0.8863183552E+00  -0.1526804143E+01   0.1543651056E-02  -0.6375640171E-02   0.4628318685E-01   0.1543651056E-02   0.0000000000E+00   0.0000000000E+00   0.0000000000E+00  -0.1894097405E+00  -0.1172314878E+01  -0.1603873098E+00   0.1441415240E+00   0.2923361809E-01  -0.1194035253E-02
  -0.8865124982E+00  -0.1526306340E+01   0.2025804982E+00  -0.6569783227E-02   0.4678098983E-01   0.2580495220E-02   0.0000000000E+00   0.0000000000E+00   0.0000000000E+00   0.3715162965E-01  -0.9444937375E+00   0.6427596484E-01   0.1451181214E+00   0.1684237979E-01  -0.1228263624E-03
  -0.8878953044E+00  -0.1728063739E+01   0.2069016742E-02  -0.6446916361E-02   0.4825767052E-01   0.2069016742E-02   0.0000000000E+00   0.0000000000E+00   0.0000000000E+00  -0.1713388881E+00  -0.1103701045E+01  -0.1328358392E+00   0.1325338930E+00   0.2282558665E-01  -0.3899609031E-02
  -0.8880842720E+00  -0.1727563741E+01   0.2030747171E+00  -0.6635883977E-02   0.4875766872E-01   0.3074714090E-02   0.0000000000E+00   0.0000000000E+00   0.0000000000E+00   0.3232464312E-01  -0.9081225492E+00   0.6470467185E-01   0.1324317715E+00   0.1261420132E-01  -0.1966363175E-02
  -0.8893208728E+00  -0.1929515369E+01   0.2618278578E-02  -0.6571136788E-02   0.5014466089E-01   0.2618278578E-02   0.0000000000E+00   0.0000000000E+00   0.0000000000E+00  -0.1536482207E+00  -0.1040461007E+01  -0.1089691855E+00   0.1218390398E+00   0.1661642950E-01  -0.5074888861E-02
  -0.8895041342E+00  -0.1928999760E+01   0.2035911926E+00  -0.6754398221E-02   0.5066027022E-01   0.3591189644E-02   0.0000000000E+00   0.0000000000E+00   0.0000000000E+00   0.4261302649E-01  -0.8599484685E+00   0.7773355637E-01   0.1206148408E+00   0.8735861305E-02  -0.2754561739E-02
  -0.8906391136E+00  -0.2131262409E+01   0.3189049312E-02  -0.6741212583E-02   0.5195178093E-01   0.3189049312E-02   0.0000000000E+00   0.0000000000E+00   0.0000000000E+00  -0.1357781433E+00  -0.9812287930E+00  -0.8746357003E-01   0.1145232507E+00   0.1057022446E-01  -0.4138246018E-02
  -0.8908149788E+00  -0.2130719847E+01   0.2041282706E+00  -0.6917077782E-02   0.5249434342E-01   0.4128267646E-02   0.0000000000E+00   0.0000000000E+00   0.0000000000E+00   0.6150788336E-01  -0.8064307092E+00   0.9726521211E-01   0.1117065247E+00   0.5018772933E-02  -0.2143077762E-02
  -0.8918775880E+00  -0.2333281117E+01   0.3789291647E-02  -0.6945367952E-02   0.5368272280E-01   0.3789291647E-02   0.0000000000E+00   0.0000000000E+00   0.0000000000E+00  -0.1044537462E+00  -0.9128956801E+00  -0.5708046721E-01   0.1087334569E+00   0.4576471157E-02  -0.2770191510E-02
  -0.8920434728E+00  -0.2332701267E+01   0.2046901412E+00  -0.7111252781E-02   0.5426257311E-01   0.4690138183E-02   0.0000000000E+00   0.0000000000E+00   0.0000000000E+00   0.9393817148E-01  -0.7431519271E+00   0.1261583330E+00   0.1041263145E+00   0.1411809288E-02  -0.9635827622E-03
  -0.8930178757E+00  -0.2535609196E+01   0.4416338300E-02  -0.7175671682E-02   0.5534367377E-01   0.4416338300E-02   0.0000000000E+00   0.0000000000E+00   0.0000000000E+00  -0.6065887604E-01  -0.8395043332E+00  -0.2012682746E-01   0.1116486049E+00  -0.2381650646E-02   0.3682903169E-02
  -0.8931707578E+00  -0.2534982809E+01   0.2052745358E+00  -0.7328553815E-02   0.5597006133E-01   0.5274532789E-02   0.0000000000E+00   0.0000000000E+00   0.0000000000E+00   0.1373902874E+00  -0.6749677484E+00   0.1609313400E+00   0.1037148139E+00  -0.2644376044E-02   0.3625452460E-02
  -0.8940063779E+00  -0.2738321833E+01   0.5059470726E-02  -0.7407969870E-02   0.5694813659E-01   0.5059470726E-02   0.0000000000E+00   0.0000000000E+00   0.0000000000E+00  -0.5563794683E-03  -0.7612631464E+00   0.2723015522E-01   0.9383383594E-01  -0.1367230200E-01   0.6047994045E-02
  -0.8941400486E+00  -0.2737642323E+01   0.2058746799E+00  -0.7541640583E-02   0.5762764698E-01   0.5874676907E-02   0.0000000000E+00   0.0000000000E+00   0.0000000000E+00   0.1444892878E+00  -0.6523347256E+00   0.1546381893E+00   0.8419212198E-01  -0.8559926973E-02   0.5899323516E-02
  -0.8945371882E+00  -0.2941480002E+01   0.5767736003E-02  -0.7441200163E-02   0.5851999798E-01   0.5767736003E-02   0.0000000000E+00   0.0000000000E+00   0.0000000000E+00   0.9368282834E-01  -0.6756031427E+00   0.8533899493E-01   0.7540959289E-01  -0.4055966791E-01   0.8138859257E-02
  -0.8946671692E+00  -0.2940744039E+01   0.2065199722E+00  -0.7571181159E-02   0.5925596099E-01   0.6519969180E-02   0.0000000000E+00   0.0000000000E+00   0.0000000000E+00   0.1379747085E+00  -0.6677149256E+00   0.1125749272E+00   0.6484749553E-01  -0.2425247388E-01   0.8626361350E-02
  -0.1116648406E+01  -0.2734484271E+01   0.4649273941E-02  -0.8227796076E-02   0.5693284881E-01   0.4649273941E-02   0.0000000000E+00   0.0000000000E+00   0.0000000000E+00  -0.1677048745E+00  -0.9754949580E+00  -0.1172281194E+00   0.1155045319E-01   0.3310194032E-01  -0.6972863316E-02
  -0.1117219398E+01  -0.2941353411E+01   0.5516105890E-02  -0.8346988081E-02   0.5864658923E-01   0.5516105890E-02   0.0000000000E+00   0.0000000000E+00   0.0000000000E+00  -0.1720808820E-01  -0.8464135452E+00  -0.4423898596E-01  -0.2468626904E-01   0.2021304349E-01  -0.1191545741E-01
  -0.1116852038E+01  -0.2733791431E+01   0.2055545216E+00  -0.8431427898E-02   0.5762568853E-01   0.5554518571E-02   0.0000000000E+00   0.0000000000E+00   0.0000000000E+00  -0.1065853230E+00  -0.9599116439E+00  -0.8077225951E-01   0.8742550730E-02   0.1812484611E-01  -0.2795364528E-02
  -0.1117418589E+01  -0.2940590144E+01   0.2062890129E+00  -0.8546178856E-02   0.5940985616E-01   0.6289009900E-02   0.0000000000E+00   0.0000000000E+00   0.0000000000E+00   0.4161895234E-01  -0.8337272534E+00  -0.9322457051E-02  -0.2787924683E-01   0.1050782470E-01  -0.5298627861E-02
  -0.1339862121E+01  -0.2731993833E+01   0.4322979437E-02  -0.9080420892E-02   0.5689724697E-01   0.4322979437E-02   0.0000000000E+00   0.0000000000E+00   0.0000000000E+00  -0.1364239987E+00  -0.9774413320E+00  -0.7904266561E-01   0.3886847623E-01  -0.6816820405E-02  -0.7299361279E-02
  -0.1340500979E+01  -0.2941288617E+01   0.5259737929E-02  -0.9334118789E-02   0.5871138322E-01   0.5259737929E-02   0.0000000000E+00   0.0000000000E+00   0.0000000000E+00   0.5299104890E-01  -0.8229411199E+00   0.9332199159E-02   0.2911419644E-01  -0.1328728514E-01  -0.1645326547E-01
  -0.1340151299E+01  -0.2731283743E+01   0.2052757497E+00  -0.9369599191E-02   0.5760733689E-01   0.5275746688E-02   0.0000000000E+00   0.0000000000E+00   0.0000000000E+00  -0.4782693717E-01  -0.9436169686E+00  -0.1913192255E-01   0.3492953910E-01  -0.5748475137E-02  -0.3532489479E-02
  -0.1340785488E+01  -0.2940491369E+01   0.2060470010E+00  -0.9618628072E-02   0.5950863066E-01   0.6046997966E-02   0.0000000000E+00   0.0000000000E+00   0.0000000000E+00   0.1422132752E+00  -0.7895074417E+00   0.7081568981E-01   0.2327430041E-01  -0.9283882006E-02  -0.8647335330E-02
  -0.1563552763E+01  -0.2730369935E+01   0.3993225869E-02  -0.9958893429E-02   0.5703579482E-01   0.3993225869E-02   0.0000000000E+00   0.0000000000E+00   0.0000000000E+00  -0.2008262352E+00  -0.1069945746E+01  -0.1321933001E+00   0.1342028056E-01  -0.2337535367E-01  -0.7879656827E-02
  -0.1564251058E+01  -0.2941066112E+01   0.4984197729E-02  -0.1038144770E-01   0.5893388787E-01   0.4984197729E-02   0.0000000000E+00   0.0000000000E+00   0.0000000000E+00   0.2853741480E-01  -0.8832749918E+00  -0.2093138787E-01   0.2422770594E-01  -0.2688655218E-01  -0.1961885871E-01
  -0.1563942946E+01  -0.2729648198E+01   0.2049958629E+00  -0.1034907646E-01   0.5775753204E-01   0.4995859858E-02   0.0000000000E+00   0.0000000000E+00   0.0000000000E+00  -0.1001464135E+00  -0.1032849231E+01  -0.6525770654E-01   0.1267350947E-01  -0.1488211213E-01  -0.5230410998E-02
  -0.1564636638E+01  -0.2940242812E+01   0.2057953757E+00  -0.1076702840E-01   0.5975718773E-01   0.5795372660E-02   0.0000000000E+00   0.0000000000E+00   0.0000000000E+00   0.1386923261E+00  -0.8379778607E+00   0.5665357950E-01   0.1979718859E-01  -0.1604920393E-01  -0.1269906790E-01
  -0.1787576398E+01  -0.2729103508E+01   0.3539255871E-02  -0.1085682806E-01   0.5753165193E-01   0.3539255871E-02   0.0000000000E+00   0.0000000000E+00   0.0000000000E+00  -0.6249109733E-01  -0.9729420119E+00   0.2994077882E-01  -0.6383648679E-01   0.2627247415E-01  -0.9670712280E-02
  -0.1788324720E+01  -0.2940450628E+01   0.4536339450E-02  -0.1146543976E-01   0.5954937188E-01   0.4536339450E-02   0.0000000000E+00   0.0000000000E+00   0.0000000000E+00   0.1909282156E+00  -0.7639740044E+00   0.1613066565E+00  -0.6413486456E-01   0.2864418389E-01  -0.1860175810E-01
  -0.1788080934E+01  -0.2728388555E+01   0.2046330492E+00  -0.1136136351E-01   0.5824660457E-01   0.4633046189E-02   0.0000000000E+00   0.0000000000E+00   0.0000000000E+00   0.7735336866E-01  -0.9037023535E+00   0.1350935160E+00  -0.5904858055E-01   0.1521964631E-01  -0.5614456883E-02
  -0.1788824562E+01  -0.2939619440E+01   0.2054329218E+00  -0.1196528151E-01   0.6038055985E-01   0.5432918779E-02   0.0000000000E+00   0.0000000000E+00   0.0000000000E+00   0.3152660490E+00  -0.7116030045E+00   0.2525838441E+00  -0.6281073294E-01   0.1814406623E-01  -0.1110551039E-01
  -0.2011775685E+01  -0.2727419658E+01   0.2384710768E-02  -0.1177568525E-01   0.5876370213E-01   0.2384710768E-02   0.0000000000E+00   0.0000000000E+00   0.0000000000E+00  -0.5216739589E+00  -0.1572600917E+01  -0.3024784143E+00  -0.1278472374E+00   0.8370870578E-01  -0.1022970252E-01
  -0.2012568977E+01  -0.2938774958E+01   0.3367676231E-02  -0.1256897740E-01   0.6122504169E-01   0.3367676231E-02   0.0000000000E+00   0.0000000000E+00   0.0000000000E+00  -0.2825030632E+00  -0.1378031978E+01  -0.1823423895E+00  -0.1453793877E+00   0.8659937633E-01  -0.2624824305E-01
  -0.2012399121E+01  -0.2726743386E+01   0.2038665877E+00  -0.1239912074E-01   0.5943997382E-01   0.3866584674E-02   0.0000000000E+00   0.0000000000E+00   0.0000000000E+00  -0.4559365361E+00  -0.1574838617E+01  -0.2756754936E+00  -0.1184949676E+00   0.4853875500E-01  -0.7045168519E-02
  -0.2013186998E+01  -0.2937992944E+01   0.2046583297E+00  -0.1318699784E-01   0.6200705613E-01   0.4658326746E-02   0.0000000000E+00   0.0000000000E+00   0.0000000000E+00  -0.1954560792E+00  -0.1359749407E+01  -0.1326009925E+00  -0.1384090889E+00   0.5247489387E-01  -0.1866913409E-01
  -0.1115647900E+01  -0.2528098841E+01   0.3946605248E-02  -0.7992969675E-02   0.5516288939E-01   0.3946605248E-02   0.0000000000E+00   0.0000000000E+00   0.0000000000E+00  -0.1586798167E+00  -0.9890108419E+00  -0.8559964702E-01   0.4151823467E-01   0.3254670806E-01   0.3273637635E-02
  -0.1115865071E+01  -0.2527472097E+01   0.2049199657E+00  -0.8210140572E-02   0.5578963336E-01   0.4919962706E-02   0.0000000000E+00   0.0000000000E+00   0.0000000000E+00  -0.1023664367E+00  -0.9737897141E+00  -0.5116173773E-01   0.4055790175E-01   0.1732964835E-01   0.3283750834E-02
  -0.1338950367E+01  -0.2523109530E+01   0.3612696556E-02  -0.8839576857E-02   0.5502905986E-01   0.3612696556E-02   0.0000000000E+00   0.0000000000E+00   0.0000000000E+00  -0.1229664794E+00  -0.9846318382E+00  -0.3910783138E-01   0.4103117456E-01  -0.8601385203E-02   0.6179809681E-02
  -0.1339243444E+01  -0.2522480192E+01   0.2046395638E+00  -0.9132653897E-02   0.5565839785E-01   0.4639560756E-02   0.0000000000E+00   0.0000000000E+00   0.0000000000E+00  -0.2571270841E-01  -0.9358124002E+00   0.3332779331E-01   0.4035193788E-01  -0.7288757221E-02   0.4508234176E-02
  -0.1562818732E+01  -0.2519990946E+01   0.3279431386E-02  -0.9710512151E-02   0.5507991354E-01   0.3279431386E-02   0.0000000000E+00   0.0000000000E+00   0.0000000000E+00  -0.1690904303E+00  -0.1058988038E+01  -0.7261743132E-01  -0.3004125017E-02  -0.1949133170E-01   0.8742008373E-02
  -0.1563199834E+01  -0.2519362879E+01   0.2043593576E+00  -0.1009161378E-01   0.5570798075E-01   0.4359354589E-02   0.0000000000E+00   0.0000000000E+00   0.0000000000E+00  -0.5826670116E-01  -0.1003835639E+01   0.9508265328E-02   0.1269526305E-02  -0.1324732586E-01   0.5307200510E-02
  -0.1787073928E+01  -0.2518002375E+01   0.2819093099E-02  -0.1060183801E-01   0.5545272513E-01   0.2819093099E-02   0.0000000000E+00   0.0000000000E+00   0.0000000000E+00  -0.5961438821E-01  -0.9926393396E+00   0.6268262941E-01  -0.7042209788E-01   0.2550633627E-01   0.4253742357E-02
  -0.1787553923E+01  -0.2517394138E+01   0.2039955450E+00  -0.1108183322E-01   0.5606096244E-01   0.3995542003E-02   0.0000000000E+00   0.0000000000E+00   0.0000000000E+00   0.8228736421E-01  -0.9121608463E+00   0.1750519962E+00  -0.6058384339E-01   0.1400861203E-01   0.3182885270E-02
  -0.2011513221E+01  -0.2516237009E+01   0.1750104122E-02  -0.1151322110E-01   0.5625869101E-01   0.1750104122E-02   0.0000000000E+00   0.0000000000E+00   0.0000000000E+00  -0.4382791937E+00  -0.1498183546E+01  -0.2014825451E+00  -0.1189384689E+00   0.7521675714E-01   0.2029433330E-01
  -0.2012095968E+01  -0.2515659288E+01   0.2032776843E+00  -0.1209596837E-01   0.5683641183E-01   0.3277681349E-02   0.0000000000E+00   0.0000000000E+00   0.0000000000E+00  -0.3901347683E+00  -0.1509640351E+01  -0.1862467162E+00  -0.1051216529E+00   0.4288649881E-01   0.1330452627E-01
  -0.1114475406E+01  -0.2322070623E+01   0.3324657685E-02  -0.7787856497E-02   0.5332658714E-01   0.3324657685E-02   0.0000000000E+00   0.0000000000E+00   0.0000000000E+00  -0.1441314031E+00  -0.1005927998E+01  -0.6619661971E-01   0.5314619478E-01   0.2727144519E-01  -0.7028984816E-03
  -0.1114695889E+01  -0.2321501627E+01   0.2043393871E+00  -0.8008339090E-02   0.5389558310E-01   0.4339384052E-02   0.0000000000E+00   0.0000000000E+00   0.0000000000E+00  -0.1003438993E+00  -0.9967267372E+00  -0.4071476239E-01   0.5539472716E-01   0.1431640185E-01   0.9685316801E-03
  -0.1337913020E+01  -0.2314534361E+01   0.2990204946E-02  -0.8664950334E-02   0.5308848900E-01   0.2990204946E-02   0.0000000000E+00   0.0000000000E+00   0.0000000000E+00  -0.1314196727E+00  -0.1027128961E+01  -0.4217785134E-01   0.3872599463E-01  -0.8809531749E-02  -0.2210010775E-03
  -0.1338196369E+01  -0.2313973966E+01   0.2040618052E+00  -0.8948298956E-02   0.5364888376E-01   0.4061802247E-02   0.0000000000E+00   0.0000000000E+00   0.0000000000E+00  -0.4451283268E-01  -0.9801175350E+00   0.2422954264E-01   0.4145923592E-01  -0.7495732222E-02   0.7439486519E-03
  -0.1562047842E+01  -0.2309862820E+01   0.2669429000E-02  -0.9570121600E-02   0.5305055020E-01   0.2669429000E-02   0.0000000000E+00   0.0000000000E+00   0.0000000000E+00  -0.1568751099E+00  -0.1080939367E+01  -0.5691656352E-01  -0.4988009445E-02  -0.1284545810E-01   0.1162840730E-02
  -0.1562402895E+01  -0.2309314060E+01   0.2037906953E+00  -0.9925175432E-02   0.5359931018E-01   0.3790692309E-02   0.0000000000E+00   0.0000000000E+00   0.0000000000E+00  -0.5371999749E-01  -0.1023089535E+01   0.2306126180E-01   0.2986081652E-02  -0.9890617151E-02   0.1305074314E-02
  -0.1786646332E+01  -0.2307116948E+01   0.2206569654E-02  -0.1049801165E-01   0.5329183217E-01   0.2206569654E-02   0.0000000000E+00   0.0000000000E+00   0.0000000000E+00  -0.9391392308E-01  -0.1063261983E+01   0.3336461904E-01  -0.4916531651E-01   0.2259021085E-01  -0.2909406533E-02
  -0.1787081031E+01  -0.2306597768E+01   0.2034287496E+00  -0.1093271074E-01   0.5381101186E-01   0.3428746563E-02   0.0000000000E+00   0.0000000000E+00   0.0000000000E+00   0.1154313335E-01  -0.1007000544E+01   0.1149413040E+00  -0.3693047217E-01   0.1114190185E-01  -0.6039267350E-03
  -0.2011445607E+01  -0.2305166231E+01   0.1315187390E-02  -0.1144560690E-01   0.5373884936E-01   0.1315187390E-02   0.0000000000E+00   0.0000000000E+00   0.0000000000E+00  -0.3593255497E+00  -0.1429563279E+01  -0.1424398159E+00  -0.7270631842E-01   0.5448351029E-01   0.2144440222E-01
  -0.2011962392E+01  -0.2304671988E+01   0.2028143022E+00  -0.1196239240E-01   0.5423309212E-01   0.2814299199E-02   0.0000000000E+00   0.0000000000E+00   0.0000000000E+00  -0.3109740999E+00  -0.1429120371E+01  -0.1200708907E+00  -0.5820858866E-01   0.2913822545E-01   0.1587529315E-01
  -0.1113212431E+01  -0.2116308520E+01   0.2735542934E-02  -0.7625421491E-02   0.5141919026E-01   0.2735542934E-02   0.0000000000E+00   0.0000000000E+00   0.0000000000E+00  -0.1156223446E+00  -0.1015772125E+01  -0.4000861332E-01   0.6662908867E-01   0.2192233862E-01  -0.5541336073E-02
  -0.1113431348E+01  -0.2115786598E+01   0.2037842586E+00  -0.7844337679E-02   0.5194111249E-01   0.3784255552E-02   0.0000000000E+00   0.0000000000E+00   0.0000000000E+00  -0.9503432719E-01  -0.1022410827E+01  -0.3365068330E-01   0.7061417516E-01   0.1134069829E-01  -0.2032487691E-02
  -0.1336811452E+01  -0.2106190371E+01   0.2409477574E-02  -0.8549842017E-02   0.5107099918E-01   0.2409477574E-02   0.0000000000E+00   0.0000000000E+00   0.0000000000E+00  -0.1192020528E+00  -0.1054378499E+01  -0.3318978264E-01   0.3877953537E-01  -0.8873485992E-02  -0.4481823382E-02
  -0.1337079088E+01  -0.2105684960E+01   0.2035141600E+00  -0.8817477718E-02   0.5157641046E-01   0.3514157020E-02   0.0000000000E+00   0.0000000000E+00   0.0000000000E+00  -0.5022548593E-01  -0.1016378355E+01   0.1993000428E-01   0.4309366905E-01  -0.7404450676E-02  -0.2228470810E-02
  -0.1561258740E+01  -0.2099926024E+01   0.2109639634E-02  -0.9505819890E-02   0.5094692614E-01   0.2109639634E-02   0.0000000000E+00   0.0000000000E+00   0.0000000000E+00  -0.1252653765E+00  -0.1087628941E+01  -0.3155058148E-01  -0.4196330863E-02  -0.7978806456E-02  -0.3333946628E-02
  -0.1561581285E+01  -0.2099440062E+01   0.2032570269E+00  -0.9828365126E-02   0.5143288847E-01   0.3257023917E-02   0.0000000000E+00   0.0000000000E+00   0.0000000000E+00  -0.4037739559E-01  -0.1037594686E+01   0.3580096609E-01   0.5343869572E-02  -0.7137035697E-02  -0.1742114825E-02
  -0.1786260523E+01  -0.2096398518E+01   0.1668285796E-02  -0.1048628342E-01   0.5105526185E-01   0.1668285796E-02   0.0000000000E+00   0.0000000000E+00   0.0000000000E+00  -0.9820211950E-01  -0.1104203776E+01   0.2111380715E-01  -0.3247618228E-01   0.1868058404E-01  -0.4411736424E-02
  -0.1786643387E+01  -0.2095948252E+01   0.2029109086E+00  -0.1086914706E-01   0.5150552837E-01   0.2910905612E-02   0.0000000000E+00   0.0000000000E+00   0.0000000000E+00  -0.2701897988E-01  -0.1070134150E+01   0.7422159311E-01  -0.1995417866E-01   0.8378020617E-02  -0.1994076437E-02
  -0.2011485332E+01  -0.2094156619E+01   0.9513030790E-03  -0.1148533183E-01   0.5122602052E-01   0.9513030790E-03   0.0000000000E+00   0.0000000000E+00   0.0000000000E+00  -0.2757504999E+00  -0.1357306137E+01  -0.9076279110E-01  -0.4185108710E-01   0.3635567425E-01   0.1538789186E-01
  -0.2011929676E+01  -0.2093727681E+01   0.2023988985E+00  -0.1192967633E-01   0.5165495875E-01   0.2398895487E-02   0.0000000000E+00   0.0000000000E+00   0.0000000000E+00  -0.2271583056E+00  -0.1344877736E+01  -0.6132235342E-01  -0.2851208180E-01   0.1781086425E-01   0.1259016238E-01
  -0.1111901370E+01  -0.1910774988E+01   0.2164135615E-02  -0.7509080225E-02   0.4943271221E-01   0.2164135615E-02   0.0000000000E+00   0.0000000000E+00   0.0000000000E+00  -0.8173136997E-01  -0.1025680107E+01  -0.1122833501E-01   0.7669439205E-01   0.1754155695E-01  -0.1029180724E-01
  -0.1112115510E+01  -0.1910289142E+01   0.2032466691E+00  -0.7723220040E-02   0.4991855805E-01   0.3246666075E-02   0.0000000000E+00   0.0000000000E+00   0.0000000000E+00  -0.1022371357E+00  -0.1066099467E+01  -0.4194428305E-01   0.8240841734E-01   0.8957202360E-02  -0.4834853815E-02
  -0.1335696950E+01  -0.1898037561E+01   0.1859855127E-02  -0.8490929552E-02   0.4897509871E-01   0.1859855127E-02   0.0000000000E+00   0.0000000000E+00   0.0000000000E+00  -0.9494505384E-01  -0.1071885842E+01  -0.1646981486E-01   0.3739305739E-01  -0.1012894149E-01  -0.7646307409E-02
  -0.1335946305E+01  -0.1897573983E+01   0.2029913815E+00  -0.8740284644E-02   0.4943867658E-01   0.2991378523E-02   0.0000000000E+00   0.0000000000E+00   0.0000000000E+00  -0.5437571155E-01  -0.1054261819E+01   0.1251733756E-01   0.4286845549E-01  -0.7940136092E-02  -0.4442736588E-02
  -0.1560492483E+01  -0.1890143768E+01   0.1589091264E-02  -0.9505122505E-02   0.4877220233E-01   0.1589091264E-02   0.0000000000E+00   0.0000000000E+00   0.0000000000E+00  -0.9533487786E-01  -0.1095906703E+01  -0.1242577161E-01  -0.3000883832E-02  -0.6157402801E-02  -0.6142062020E-02
  -0.1560782014E+01  -0.1889705566E+01   0.2027532750E+00  -0.9794654012E-02   0.4921040427E-01   0.2753272000E-02   0.0000000000E+00   0.0000000000E+00   0.0000000000E+00  -0.3647359002E-01  -0.1063031180E+01   0.3361064679E-01   0.7330345740E-02  -0.5865439327E-02  -0.3846468592E-02
  -0.1785931591E+01  -0.1885804990E+01   0.1191961400E-02  -0.1054287135E-01   0.4875876987E-01   0.1191961400E-02   0.0000000000E+00   0.0000000000E+00   0.0000000000E+00  -0.8952527168E-01  -0.1127633439E+01   0.1447119300E-01  -0.1885131425E-01   0.1428756479E-01  -0.4884148482E-02
  -0.1786265543E+01  -0.1885406044E+01   0.2024359048E+00  -0.1087682319E-01   0.4915771639E-01   0.2435901786E-02   0.0000000000E+00   0.0000000000E+00   0.0000000000E+00  -0.4492065462E-01  -0.1110471239E+01   0.4570322139E-01  -0.6957318490E-02   0.5972408977E-02  -0.2803209329E-02
  -0.2011596723E+01  -0.1883180071E+01   0.6138620937E-03  -0.1159672282E-01   0.4872459887E-01   0.6138620937E-03   0.0000000000E+00   0.0000000000E+00   0.0000000000E+00  -0.2095348660E+00  -0.1302963923E+01  -0.5840172318E-01  -0.1935104609E-01   0.2429368840E-01   0.9294889974E-02
  -0.2011975839E+01  -0.1882800196E+01   0.2020062397E+00  -0.1197583894E-01   0.4910447446E-01   0.2006236654E-02   0.0000000000E+00   0.0000000000E+00   0.0000000000E+00  -0.1671300929E+00  -0.1287365218E+01  -0.2990169930E-01  -0.8040409244E-02   0.1095079583E-01   0.8793981931E-02
  -0.1110611610E+01  -0.1705465351E+01   0.1603157114E-02  -0.7448369653E-02   0.4735835907E-01   0.1603157114E-02   0.0000000000E+00   0.0000000000E+00   0.0000000000E+00  -0.4770492086E-01  -0.1040034141E+01   0.1710243326E-01   0.8367428892E-01   0.1365108947E-01  -0.1234717520E-01
  -0.1110818422E+01  -0.1705004654E+01   0.2027228555E+00  -0.7655182257E-02   0.4781905630E-01   0.2722852461E-02   0.0000000000E+00   0.0000000000E+00   0.0000000000E+00  -0.1255202924E+00  -0.1130368599E+01  -0.6691401008E-01   0.9113741609E-01   0.6798879714E-02  -0.5949554816E-02
  -0.1334716412E+01  -0.1690051862E+01   0.1338829404E-02  -0.8495301816E-02   0.4680090840E-01   0.1338829404E-02   0.0000000000E+00   0.0000000000E+00   0.0000000000E+00  -0.6327692556E-01  -0.1082770744E+01   0.4983060519E-02   0.3226518558E-01  -0.1333893912E-01  -0.7900065581E-02
  -0.1334945463E+01  -0.1689618598E+01   0.2024926938E+00  -0.8724352572E-02   0.4723417177E-01   0.2492690800E-02   0.0000000000E+00   0.0000000000E+00   0.0000000000E+00  -0.5355864090E-01  -0.1088843903E+01   0.7011505388E-02   0.3882553173E-01  -0.9712481285E-02  -0.4832421290E-02
  -0.1559922382E+01  -0.1680489869E+01   0.1107212397E-02  -0.9572431519E-02   0.4653242056E-01   0.1107212397E-02   0.0000000000E+00   0.0000000000E+00   0.0000000000E+00  -0.6746644641E-01  -0.1104475513E+01   0.1363727284E-02  -0.5815027032E-02  -0.6806856850E-02  -0.5941233520E-02
  -0.1560178951E+01  -0.1680087052E+01   0.2022797991E+00  -0.9829000544E-02   0.4693523848E-01   0.2279796096E-02   0.0000000000E+00   0.0000000000E+00   0.0000000000E+00  -0.3432616099E-01  -0.1090128362E+01   0.2544718840E-01   0.5346076489E-02  -0.5948427252E-02  -0.4112044245E-02
  -0.1785778855E+01  -0.1675307171E+01   0.7701370497E-03  -0.1066908537E-01   0.4641960898E-01   0.7701370497E-03   0.0000000000E+00   0.0000000000E+00   0.0000000000E+00  -0.6850259803E-01  -0.1133482970E+01   0.1501956210E-01  -0.1289870685E-01   0.1016816084E-01  -0.3378480977E-02
  -0.1786067472E+01  -0.1674946241E+01   0.2020000159E+00  -0.1095770221E-01   0.4678053874E-01   0.2000012921E-02   0.0000000000E+00   0.0000000000E+00   0.0000000000E+00  -0.4017179746E-01  -0.1125472821E+01   0.3353639840E-01  -0.1272610308E-02   0.4109061382E-02  -0.2343735832E-02
  -0.2011777533E+01  -0.1672234595E+01   0.2949402986E-03  -0.1177753304E-01   0.4623454538E-01   0.2949402986E-03   0.0000000000E+00   0.0000000000E+00   0.0000000000E+00  -0.1566067357E+00  -0.1261702545E+01  -0.3909157796E-01  -0.8139605476E-02   0.1804293741E-01   0.6126541950E-02
  -0.2012099440E+01  -0.1671891440E+01   0.2016321180E+00  -0.1209943975E-01   0.4657770020E-01   0.1632115045E-02   0.0000000000E+00   0.0000000000E+00   0.0000000000E+00  -0.1267352091E+00  -0.1251891060E+01  -0.1946192614E-01   0.1934988629E-02   0.8107894357E-02   0.6577517121E-02
  -0.1109611298E+01  -0.1500178503E+01   0.1059533395E-02  -0.7456088034E-02   0.4518468684E-01   0.1059533395E-02   0.0000000000E+00   0.0000000000E+00   0.0000000000E+00  -0.1297732692E-01  -0.1058550114E+01   0.4406005319E-01   0.8561948531E-01   0.9482966280E-02  -0.1216730449E-01
  -0.1109808117E+01  -0.1499731470E+01   0.2022170940E+00  -0.7652906618E-02   0.4563171986E-01   0.2217091039E-02   0.0000000000E+00   0.0000000000E+00   0.0000000000E+00  -0.1476266539E+00  -0.1197495092E+01  -0.9238380356E-01   0.9540143769E-01   0.4482439479E-02  -0.5596719565E-02
  -0.1334342277E+01  -0.1482051627E+01   0.8528506253E-03  -0.8578817389E-02   0.4454778294E-01   0.8528506253E-03   0.0000000000E+00   0.0000000000E+00   0.0000000000E+00  -0.2679908894E-01  -0.1089278539E+01   0.2769581726E-01   0.2123431342E-01  -0.1792767739E-01  -0.4997887413E-02
  -0.1334547805E+01  -0.1481638246E+01   0.2020224263E+00  -0.8784344534E-02   0.4496116431E-01   0.2022423292E-02   0.0000000000E+00   0.0000000000E+00   0.0000000000E+00  -0.4345893936E-01  -0.1114862227E+01   0.7119606314E-02   0.2920939431E-01  -0.1240729827E-01  -0.3148787302E-02
  -0.1560013227E+01  -0.1470844380E+01   0.6673706781E-03  -0.9724547153E-02   0.4423369038E-01   0.6673706781E-03   0.0000000000E+00   0.0000000000E+00   0.0000000000E+00  -0.4375808501E-01  -0.1115322783E+01   0.7357460327E-02  -0.1461820871E-01  -0.8142896950E-02  -0.3110195727E-02
  -0.1560234663E+01  -0.1470466748E+01   0.2018391318E+00  -0.9945983225E-02   0.4461132187E-01   0.1839128783E-02   0.0000000000E+00   0.0000000000E+00   0.0000000000E+00  -0.2908317777E-01  -0.1113260993E+01   0.1612976554E-01  -0.2133716647E-02  -0.6469209764E-02  -0.2551509344E-02
  -0.1786080420E+01  -0.1464830784E+01   0.3980774910E-03  -0.1088125028E-01   0.4405197635E-01   0.3980774910E-03   0.0000000000E+00   0.0000000000E+00   0.0000000000E+00  -0.4116451647E-01  -0.1128799277E+01   0.1762178949E-01  -0.1513403157E-01   0.6973680576E-02  -0.5876136092E-03
  -0.1786323730E+01  -0.1464498104E+01   0.2016012309E+00  -0.1112456009E-01   0.4438465555E-01   0.1601227867E-02   0.0000000000E+00   0.0000000000E+00   0.0000000000E+00  -0.2045254345E-01  -0.1122925860E+01   0.3131227330E-01  -0.2981163502E-02   0.2873914072E-02  -0.7819039725E-03
  -0.2012042936E+01  -0.1461319131E+01   0.3603235107E-05  -0.1204293577E-01   0.4375739890E-01   0.3603235107E-05   0.0000000000E+00   0.0000000000E+00   0.0000000000E+00  -0.1132856492E+00  -0.1228820063E+01  -0.3021531634E-01  -0.6103996964E-02   0.1590016911E-01   0.6765285085E-02
  -0.2012310481E+01  -0.1461003648E+01   0.2012825281E+00  -0.1231048077E-01   0.4407288165E-01   0.1282525101E-02   0.0000000000E+00   0.0000000000E+00   0.0000000000E+00  -0.9743997431E-01  -0.1227975679E+01  -0.2199050977E-01   0.3873286287E-02   0.7830650675E-02   0.6897770979E-02
  -0.1109531615E+01  -0.1293982570E+01   0.5386469763E-03  -0.7553784743E-02   0.4289310952E-01   0.5386469763E-03   0.0000000000E+00   0.0000000000E+00   0.0000000000E+00   0.1926146856E-01  -0.1082055135E+01   0.6630632610E-01   0.8159058837E-01   0.3461332654E-02  -0.2195841493E-02
  -0.1109714514E+01  -0.1293536145E+01   0.2017321127E+00  -0.7736684269E-02   0.4333953523E-01   0.1732109749E-02   0.0000000000E+00   0.0000000000E+00   0.0000000000E+00  -0.1785965677E+00  -0.1274952790E+01  -0.1284077299E+00   0.9455498634E-01   0.1064168778E-02   0.2564462718E-03
  -0.1335477155E+01  -0.1273356960E+01   0.4088988273E-03  -0.8765025004E-02   0.4221077039E-01   0.4088988273E-03   0.0000000000E+00   0.0000000000E+00   0.0000000000E+00  -0.1647441249E-03  -0.1105317509E+01   0.3605314207E-01   0.1734881915E-02  -0.2252118948E-01   0.2118218628E-02
  -0.1335653760E+01  -0.1272953093E+01   0.2015847738E+00  -0.8941629536E-02   0.4261463662E-01   0.1584770819E-02   0.0000000000E+00   0.0000000000E+00   0.0000000000E+00  -0.1755803026E-01  -0.1124496448E+01   0.1854520626E-01   0.1183535182E-01  -0.1535100913E-01   0.1032184204E-02
  -0.1561528563E+01  -0.1260803151E+01   0.2719495602E-03  -0.9985323392E-02   0.4187888894E-01   0.2719495602E-03   0.0000000000E+00   0.0000000000E+00   0.0000000000E+00  -0.2012177835E-01  -0.1124436837E+01   0.9093507964E-02  -0.3126919552E-01  -0.8142114086E-02   0.1448837101E-02
  -0.1561709381E+01  -0.1260441589E+01   0.2014327072E+00  -0.1016614103E-01   0.4224045052E-01   0.1432704172E-02   0.0000000000E+00   0.0000000000E+00   0.0000000000E+00  -0.1547881930E-01  -0.1126554581E+01   0.1080071340E-01  -0.1663345637E-01  -0.6462136565E-02   0.3076203981E-03
  -0.1787246843E+01  -0.1254143264E+01   0.7164208716E-04  -0.1120223261E-01   0.4166457575E-01   0.7164208716E-04   0.0000000000E+00   0.0000000000E+00   0.0000000000E+00  -0.1141424407E-01  -0.1118797289E+01   0.1881362564E-01  -0.2641066505E-01   0.5169067567E-02   0.2674772333E-02
  -0.1787439921E+01  -0.1253830833E+01   0.2012375607E+00  -0.1139531100E-01   0.4197700716E-01   0.1237557721E-02   0.0000000000E+00   0.0000000000E+00   0.0000000000E+00   0.1089743999E-01  -0.1106333505E+01   0.3667247013E-01  -0.1275751019E-01   0.2124107278E-02   0.1434372960E-02
  -0.2012414286E+01  -0.1250342719E+01  -0.2462523574E-03  -0.1241428614E-01   0.4129792101E-01  -0.2462523574E-03   0.0000000000E+00   0.0000000000E+00   0.0000000000E+00  -0.7235655387E-01  -0.1195818737E+01  -0.2659350592E-01  -0.1258945122E-01   0.1585041967E-01   0.1059044182E-01
  -0.2012623226E+01  -0.1250047400E+01   0.2009661415E+00  -0.1262322599E-01   0.4159323974E-01   0.9661385050E-03   0.0000000000E+00   0.0000000000E+00   0.0000000000E+00  -0.6685467641E-01  -0.1200705332E+01  -0.2637810609E-01  -0.1550772332E-02   0.8371638418E-02   0.9513324468E-02
  -0.1111279240E+01  -0.1084512697E+01   0.6493503626E-04  -0.7772559580E-02   0.4045321263E-01   0.6493503626E-04   0.0000000000E+00   0.0000000000E+00   0.0000000000E+00   0.5288476893E-01  -0.1104317500E+01   0.8268568950E-01   0.6418637810E-01  -0.5450575247E-02   0.8792859572E-03
  -0.1111440754E+01  -0.1084051608E+01   0.2012802207E+00  -0.7934074401E-02   0.4091430182E-01   0.1280217697E-02   0.0000000000E+00   0.0000000000E+00   0.0000000000E+00  -0.1179179732E+00  -0.1258290502E+01  -0.7850531009E-01   0.8287586690E-01  -0.4297226325E-02   0.1854848373E-02
  -0.1339325708E+01  -0.1062518279E+01   0.9399650333E-05  -0.9087247657E-02   0.3977855142E-01   0.9399650333E-05   0.0000000000E+00   0.0000000000E+00   0.0000000000E+00   0.3251129700E-01  -0.1113833480E+01   0.4566765815E-01  -0.2505269727E-01  -0.2322505570E-01   0.7481567575E-02
  -0.1339463479E+01  -0.1062112974E+01   0.2011805521E+00  -0.9225019389E-02   0.4018385627E-01   0.1180549104E-02   0.0000000000E+00   0.0000000000E+00   0.0000000000E+00   0.2099909010E-01  -0.1119525740E+01   0.3806450443E-01  -0.1164537317E-01  -0.1661919960E-01   0.4280535896E-02
  -0.1565366178E+01  -0.1049575977E+01  -0.8203506541E-04  -0.1038291759E-01   0.3946668323E-01  -0.8203506541E-04   0.0000000000E+00   0.0000000000E+00   0.0000000000E+00  -0.4930960268E-02  -0.1140122931E+01  -0.1120902727E-02  -0.5275730623E-01  -0.5298865256E-02   0.7508841254E-02
  -0.1565496496E+01  -0.1049221765E+01   0.2010587583E+00  -0.1051323616E-01   0.3982089508E-01   0.1058755283E-02   0.0000000000E+00   0.0000000000E+00   0.0000000000E+00   0.1005501579E-01  -0.1126016219E+01   0.1379888161E-01  -0.3518190556E-01  -0.5503391792E-02   0.4244138927E-02
  -0.1789717653E+01  -0.1042800298E+01  -0.2151405072E-03  -0.1165507334E-01   0.3926051189E-01  -0.2151405072E-03   0.0000000000E+00   0.0000000000E+00   0.0000000000E+00   0.1118485118E-01  -0.1113931266E+01   0.1015100732E-01  -0.4395487729E-01   0.5097988151E-02   0.7574812694E-02
  -0.1789850726E+01  -0.1042500226E+01   0.2009060196E+00  -0.1178814560E-01   0.3956058398E-01   0.9060166154E-03   0.0000000000E+00   0.0000000000E+00   0.0000000000E+00   0.4206762285E-01  -0.1087625662E+01   0.3915926390E-01  -0.2820566663E-01   0.1394857839E-02   0.4810844567E-02
  -0.2012910671E+01  -0.1039033596E+01  -0.4431423142E-03  -0.1291067138E-01   0.3886371401E-01  -0.4431423142E-03   0.0000000000E+00   0.0000000000E+00   0.0000000000E+00  -0.3510872741E-01  -0.1162584445E+01  -0.3089110051E-01  -0.2552183311E-01   0.1588452361E-01   0.1841887239E-01
  -0.2013050795E+01  -0.1038750761E+01   0.2006902974E+00  -0.1305079504E-01   0.3914654868E-01   0.6902944272E-03   0.0000000000E+00   0.0000000000E+00   0.0000000000E+00  -0.2778719011E-01  -0.1160576314E+01  -0.2635388557E-01  -0.1273631292E-01   0.7685739551E-02   0.1468115166E-01
  -0.1116422881E+01  -0.8675361965E+00  -0.3948710890E-03  -0.8153191098E-02   0.3782056851E-01  -0.3948710890E-03   0.0000000000E+00   0.0000000000E+00   0.0000000000E+00   0.9331141138E-01  -0.1102708169E+01   0.1136747989E+00   0.5177482062E-01  -0.2416017445E-01   0.4287157940E-01
  -0.1116560119E+01  -0.8670417139E+00   0.2008407538E+00  -0.8290428828E-02   0.3831505113E-01   0.8407508189E-03   0.0000000000E+00   0.0000000000E+00   0.0000000000E+00  -0.1634146572E+00  -0.1331863276E+01  -0.1274384131E+00   0.7113885531E-01  -0.1572564760E-01   0.2419144999E-01
  -0.1347430207E+01  -0.8476087843E+00  -0.3499104716E-03  -0.9563186707E-02   0.3723587667E-01  -0.3499104716E-03   0.0000000000E+00   0.0000000000E+00   0.0000000000E+00  -0.2787987840E-03  -0.1186921509E+01  -0.1396909169E-01  -0.5564697273E-01  -0.2181299792E-01   0.2888999514E-01
  -0.1347528616E+01  -0.8471904147E+00   0.2008074391E+00  -0.9661595718E-02   0.3765424629E-01   0.8074361060E-03   0.0000000000E+00   0.0000000000E+00   0.0000000000E+00   0.5167185265E-01  -0.1120962301E+01   0.4555618444E-01  -0.4490924029E-01  -0.1756849126E-01   0.1610255868E-01
  -0.1572382813E+01  -0.8362653689E+00  -0.3864587808E-03  -0.1092589280E-01   0.3699501009E-01  -0.3864587808E-03   0.0000000000E+00   0.0000000000E+00   0.0000000000E+00   0.1294784349E-01  -0.1150646555E+01  -0.1392886241E-01  -0.8010904798E-01  -0.2225761434E-02   0.1901477970E-01
  -0.1572464132E+01  -0.8359097363E+00   0.2007214971E+00  -0.1100721220E-01   0.3735064267E-01   0.7214940540E-03   0.0000000000E+00   0.0000000000E+00   0.0000000000E+00   0.5708770534E-01  -0.1101428994E+01   0.3323733762E-01  -0.6559978971E-01  -0.5443774747E-02   0.1097415406E-01
  -0.1793834424E+01  -0.8303283487E+00  -0.4571731132E-03  -0.1224610428E-01   0.3684055429E-01  -0.4571731132E-03   0.0000000000E+00   0.0000000000E+00   0.0000000000E+00   0.3880554813E-01  -0.1103683987E+01   0.1757843974E-02  -0.6995186845E-01   0.4420666094E-02   0.1410354214E-01
  -0.1793909600E+01  -0.8300319708E+00   0.2006094692E+00  -0.1232128045E-01   0.3713693220E-01   0.6094662109E-03   0.0000000000E+00   0.0000000000E+00   0.0000000000E+00   0.7775640841E-01  -0.1063523351E+01   0.4179688999E-01  -0.5842724940E-01  -0.1211571920E-02   0.8945755160E-02
  -0.2013538445E+01  -0.8269864178E+00  -0.5722986011E-03  -0.1353844541E-01   0.3646512218E-01  -0.5722986011E-03   0.0000000000E+00   0.0000000000E+00   0.0000000000E+00   0.2588273559E-01  -0.1101396248E+01  -0.1888463563E-01  -0.4761118033E-01   0.1132936363E-01   0.2830843794E-01
  -0.2013611581E+01  -0.8267074029E+00   0.2004634518E+00  -0.1361158073E-01   0.3674413705E-01   0.4634487562E-03   0.0000000000E+00   0.0000000000E+00   0.0000000000E+00   0.4307393118E-01  -0.1083921545E+01  -0.1355157996E-02  -0.3972562775E-01   0.2571574223E-02   0.2084304594E-01
  -0.7085719463E+00   0.7219839804E+00  -0.1992757974E-02  -0.3719067319E-02   0.1429356236E-01  -0.1992757974E-02   0.0000000000E+00   0.0000000000E+00   0.0000000000E+00  -0.1594145883E+00  -0.1283204979E+01  -0.1727341726E+00  -0.2868303747E+00   0.4210244670E-01   0.4576468984E-01
  -0.8010403884E+00   0.5202536549E+00  -0.3103926560E-02  -0.5793548360E-02   0.1794010086E-01  -0.3103926560E-02   0.0000000000E+00   0.0000000000E+00   0.0000000000E+00  -0.2779967729E+00  -0.1556141427E+01  -0.1156229403E+00  -0.5620491373E-01  -0.1337826637E+00   0.1643544310E+00
  -0.6361680228E+00   0.4236779417E+00  -0.4613513755E-02  -0.5875964772E-02   0.1719059571E-01  -0.4613513755E-02   0.0000000000E+00   0.0000000000E+00   0.0000000000E+00  -0.1182079120E+01  -0.2676762464E+01  -0.7921648124E+00  -0.1676297164E+00   0.6075829659E-01   0.3941180067E+00
  -0.5333485999E+00   0.5449255209E+00  -0.2437777644E-02  -0.4048446929E-02   0.1356751694E-01  -0.2437777644E-02   0.0000000000E+00   0.0000000000E+00   0.0000000000E+00   0.1654981960E+00  -0.1075498294E+01   0.2030225238E+00  -0.2977468221E+00   0.3000923020E+00   0.3778371302E+00
  -0.7088482658E+00   0.7216690821E+00   0.1991007745E+00  -0.3995386849E-02   0.1397866408E-01  -0.8992284904E-03   0.0000000000E+00   0.0000000000E+00   0.0000000000E+00   0.1217356470E+00  -0.9549031113E+00   0.1302776379E+00  -0.3070778397E+00   0.3741558591E-01   0.3893131604E-01
  -0.8008562210E+00   0.5198902722E+00   0.1984948532E+00  -0.5609380993E-02   0.1757671820E-01  -0.1505149790E-02   0.0000000000E+00   0.0000000000E+00   0.0000000000E+00   0.3257711393E-01  -0.1239556419E+01   0.1966584022E+00  -0.1582169717E+00  -0.7135375394E-01   0.1120355819E+00
  -0.6356898674E+00   0.4234273665E+00   0.1976461219E+00  -0.5397809416E-02   0.1694002045E-01  -0.2353881116E-02   0.0000000000E+00   0.0000000000E+00   0.0000000000E+00  -0.9702860319E+00  -0.2474821585E+01  -0.5964540616E+00  -0.2255844856E+00   0.4548012116E-01   0.2515592971E+00
  -0.5332520085E+00   0.5448541340E+00   0.1988787061E+00  -0.3951855456E-02   0.1349613002E-01  -0.1121296897E-02   0.0000000000E+00   0.0000000000E+00   0.0000000000E+00  -0.2074771114E+00  -0.1431518975E+01  -0.1573631032E+00  -0.3255751595E+00   0.1887761721E+00   0.2342971306E+00
  -0.8660623555E+00   0.3466182247E+00  -0.3907292970E-02  -0.7934582481E-02   0.2113001471E-01  -0.3907292970E-02   0.0000000000E+00   0.0000000000E+00   0.0000000000E+00  -0.2716868670E+00  -0.1637739632E+01   0.3545722150E-01   0.5620969384E-01  -0.1761288713E+00   0.1375430788E+00
  -0.7065540360E+00   0.2926335114E+00  -0.5849691256E-02  -0.7654946030E-02   0.2053041042E-01  -0.5849691256E-02   0.0000000000E+00   0.0000000000E+00   0.0000000000E+00  -0.1032984834E+01  -0.2617522795E+01  -0.4167124205E+00  -0.2458895492E-01  -0.1631300279E+00   0.2715343275E+00
  -0.8654677787E+00   0.3463416399E+00   0.1980704394E+00  -0.7340005738E-02   0.2085342994E-01  -0.1929563604E-02   0.0000000000E+00   0.0000000000E+00   0.0000000000E+00   0.4402350491E-01  -0.1418859406E+01   0.3040288062E+00  -0.3777648302E-01  -0.1042240858E+00   0.9653808607E-01
  -0.7056874720E+00   0.2924007842E+00   0.1969543611E+00  -0.6788381999E-02   0.2029768318E-01  -0.3045641950E-02   0.0000000000E+00   0.0000000000E+00   0.0000000000E+00  -0.1718335099E+01  -0.3423908759E+01  -0.1169687570E+01  -0.1098591152E+00  -0.9680309813E-01   0.1792109643E+00
  -0.9037998646E+00   0.1824561321E+00  -0.4306310336E-02  -0.9475502614E-02   0.2391844612E-01  -0.4306310336E-02   0.0000000000E+00   0.0000000000E+00   0.0000000000E+00  -0.1190534973E+00  -0.1446707179E+01   0.3175915894E+00   0.5817717274E-01  -0.1859127694E+00   0.7380067014E-01
  -0.7465320657E+00   0.1591709437E+00  -0.6320670134E-02  -0.8905095664E-02   0.2350065474E-01  -0.6320670134E-02   0.0000000000E+00   0.0000000000E+00   0.0000000000E+00  -0.1104806045E+01  -0.2707097368E+01  -0.3750733725E+00   0.1634281298E-02  -0.2320382270E+00   0.1074123326E+00
  -0.9029616066E+00   0.1823969566E+00   0.1978945601E+00  -0.8637244633E-02   0.2385927061E-01  -0.2105442937E-02   0.0000000000E+00   0.0000000000E+00   0.0000000000E+00  -0.8116582499E-01  -0.1606516589E+01   0.2613351972E+00  -0.2270199663E-02  -0.1149370693E+00   0.5088706563E-01
  -0.7454203029E+00   0.1591153979E+00   0.1967286374E+00  -0.7793332863E-02   0.2344510894E-01  -0.3271365628E-02   0.0000000000E+00   0.0000000000E+00   0.0000000000E+00  -0.1804151719E+01  -0.3626026207E+01  -0.1189834961E+01  -0.4799076307E-01  -0.1455732262E+00   0.7279639111E-01
  -0.1063737146E+01   0.1904220489E+00  -0.3084198049E-02  -0.1016353576E-01   0.2437519089E-01  -0.3084198049E-02   0.0000000000E+00   0.0000000000E+00   0.0000000000E+00  -0.4700589031E+00  -0.1663303070E+01  -0.2122245729E+00   0.1129944470E+00  -0.4435191427E-01   0.6992631860E-01
  -0.1063106166E+01   0.1904780817E+00   0.1986198687E+00  -0.9532556339E-02   0.2443122366E-01  -0.1380134287E-02   0.0000000000E+00   0.0000000000E+00   0.0000000000E+00   0.1330291931E-01  -0.1325649493E+01   0.1965885657E+00   0.6941549729E-01  -0.2600019962E-01   0.4692781088E-01
  -0.1241383593E+01   0.1975637103E+00  -0.2511301540E-02  -0.1096968290E-01   0.2455142427E-01  -0.2511301540E-02   0.0000000000E+00   0.0000000000E+00   0.0000000000E+00  -0.5226062700E+00  -0.1655068261E+01  -0.3592677416E+00   0.1292147524E+00   0.2758995822E-01   0.3305612158E-01
  -0.1240928057E+01   0.1976648134E+00   0.1989411455E+00  -0.1051414733E-01   0.2465252744E-01  -0.1058857467E-02   0.0000000000E+00   0.0000000000E+00   0.0000000000E+00   0.8057929330E-01  -0.1156117330E+01   0.1871889030E+00   0.1084816535E+00   0.2392282136E-01   0.2243741756E-01
  -0.1429104233E+01   0.2039045040E+00  -0.2306905659E-02  -0.1185538349E-01   0.2472218302E-01  -0.2306905659E-02   0.0000000000E+00   0.0000000000E+00   0.0000000000E+00  -0.3446657133E+00  -0.1453511117E+01  -0.2303340104E+00   0.1035306404E+00   0.3767348199E-01   0.2914987713E-01
  -0.1428775524E+01   0.2040439869E+00   0.1990252118E+00  -0.1152667413E-01   0.2486166585E-01  -0.9747911946E-03   0.0000000000E+00   0.0000000000E+00   0.0000000000E+00  -0.4734360772E-01  -0.1225646952E+01   0.2903692281E-01   0.8862960178E-01   0.3236395588E-01   0.1846886362E-01
  -0.1622152528E+01   0.2090658577E+00  -0.2176587026E-02  -0.1280184757E-01   0.2493435473E-01  -0.2176587026E-02   0.0000000000E+00   0.0000000000E+00   0.0000000000E+00  -0.1827388537E+00  -0.1275241871E+01  -0.1112272429E+00   0.8345709881E-01   0.2725680703E-01   0.2628380130E-01
  -0.1621910035E+01   0.2092310541E+00   0.1990549784E+00  -0.1255935487E-01   0.2509955114E-01  -0.9450246107E-03   0.0000000000E+00   0.0000000000E+00   0.0000000000E+00  -0.3862274742E-01  -0.1176710629E+01   0.8281966617E-02   0.7465441109E-01   0.2601269203E-01   0.1603916559E-01
  -0.1817354872E+01   0.2110191599E+00  -0.2040670137E-02  -0.1379557164E-01   0.2524721793E-01  -0.2040670137E-02   0.0000000000E+00   0.0000000000E+00   0.0000000000E+00  -0.1486088015E+00  -0.1216047696E+01  -0.1184001031E+00   0.5017338396E-01  -0.1756002944E-02   0.2216593428E-01
  -0.1817167535E+01   0.2112039510E+00   0.1990831330E+00  -0.1360823461E-01   0.2543200898E-01  -0.9168699582E-03   0.0000000000E+00   0.0000000000E+00   0.0000000000E+00  -0.9933834008E-01  -0.1195629931E+01  -0.8561590583E-01   0.4549042302E-01   0.8556531105E-02   0.1318145161E-01
  -0.2014806213E+01   0.2140591906E+00  -0.1723351251E-02  -0.1480621258E-01   0.2567626663E-01  -0.1723351251E-02   0.0000000000E+00   0.0000000000E+00   0.0000000000E+00   0.7169134516E-02  -0.9967497016E+00  -0.2956873809E-01   0.2442673595E-01  -0.3240043833E-01   0.1261849967E-01
  -0.2014658223E+01   0.2142480168E+00   0.1992049691E+00  -0.1465822332E-01   0.2586509283E-01  -0.7950338899E-03   0.0000000000E+00   0.0000000000E+00   0.0000000000E+00   0.1356129802E+00  -0.8924935113E+00   0.8632871584E-01   0.2337963192E-01  -0.1054400614E-01   0.7349480626E-02
  -0.1036485774E+01   0.3658161972E+00  -0.2686298986E-02  -0.8694273604E-02   0.2194728623E-01  -0.2686298986E-02   0.0000000000E+00   0.0000000000E+00   0.0000000000E+00  -0.3901480365E+00  -0.1654077459E+01  -0.2825266381E+00   0.1575037643E+00  -0.4412819704E-01   0.8780446411E-01
  -0.1036022145E+01   0.3657079095E+00   0.1987879998E+00  -0.8230644767E-02   0.2183899855E-01  -0.1212003186E-02   0.0000000000E+00   0.0000000000E+00   0.0000000000E+00   0.2794999096E+00  -0.1052976173E+01   0.3503952500E+00   0.8210782537E-01  -0.2448111162E-01   0.6179699132E-01
  -0.1221534925E+01   0.3793134924E+00  -0.2297405019E-02  -0.9666875300E-02   0.2226414638E-01  -0.2297405019E-02   0.0000000000E+00   0.0000000000E+00   0.0000000000E+00  -0.3914432482E+00  -0.1614055861E+01  -0.3528067297E+00   0.1949769960E+00   0.4062234066E-01   0.5165181187E-01
  -0.1221186601E+01   0.3792980733E+00   0.1989964037E+00  -0.9318550717E-02   0.2224872733E-01  -0.1003599253E-02   0.0000000000E+00   0.0000000000E+00   0.0000000000E+00   0.1717622345E+00  -0.1113316247E+01   0.1749985178E+00   0.1530077117E+00   0.2979594688E-01   0.3563371352E-01
  -0.1414569019E+01   0.3899249961E+00  -0.2167909889E-02  -0.1071226859E-01   0.2248757406E-01  -0.2167909889E-02   0.0000000000E+00   0.0000000000E+00   0.0000000000E+00  -0.2553431470E+00  -0.1432489155E+01  -0.2400739634E+00   0.1626938017E+00   0.3751326072E-01   0.4299485799E-01
  -0.1414308549E+01   0.3899827675E+00   0.1990348864E+00  -0.1045179852E-01   0.2254534547E-01  -0.9651166036E-03   0.0000000000E+00   0.0000000000E+00   0.0000000000E+00   0.1221345437E+00  -0.1098841918E+01   0.1125042123E+00   0.1326079303E+00   0.2896812458E-01   0.2767545830E-01
  -0.1612195521E+01   0.3983257236E+00  -0.2113280465E-02  -0.1179615123E-01   0.2274314761E-01  -0.2113280465E-02   0.0000000000E+00   0.0000000000E+00   0.0000000000E+00  -0.1163447724E+00  -0.1264192895E+01  -0.1221285842E+00   0.1343877256E+00   0.3371315557E-01   0.3487406380E-01
  -0.1611996287E+01   0.3984364006E+00   0.1990193806E+00  -0.1159691657E-01   0.2285382462E-01  -0.9806224455E-03   0.0000000000E+00   0.0000000000E+00   0.0000000000E+00   0.7321019951E-01  -0.1104492276E+01   0.5085782697E-01   0.1141768265E+00   0.2612990335E-01   0.2120535215E-01
  -0.1812345191E+01   0.4035867934E+00  -0.2038912080E-02  -0.1291053080E-01   0.2311425236E-01  -0.2038912080E-02   0.0000000000E+00   0.0000000000E+00   0.0000000000E+00  -0.6689009199E-01  -0.1180990775E+01  -0.9812774992E-01   0.8379940720E-01   0.6992321550E-02   0.2954045425E-01
  -0.1812184256E+01   0.4037380673E+00   0.1990093331E+00  -0.1274959584E-01   0.2326552626E-01  -0.9906698854E-03   0.0000000000E+00   0.0000000000E+00   0.0000000000E+00   0.1923471896E-01  -0.1113021421E+01  -0.2256590270E-01   0.7172762515E-01   0.9661484070E-02   0.1721793476E-01
  -0.2014033402E+01   0.4081495661E+00  -0.1802024574E-02  -0.1403340167E-01   0.2371829309E-01  -0.1802024574E-02   0.0000000000E+00   0.0000000000E+00   0.0000000000E+00   0.5764142205E-01  -0.9979179224E+00  -0.2602471116E-01   0.3962971013E-01  -0.1751645825E-01   0.1356124452E-01
  -0.2013898101E+01   0.4083100374E+00   0.1990843259E+00  -0.1389810115E-01   0.2387876436E-01  -0.9156771276E-03   0.0000000000E+00   0.0000000000E+00   0.0000000000E+00   0.1735884655E+00  -0.8967686767E+00   0.8230770934E-01   0.3465694406E-01  -0.6291179454E-02   0.6772355133E-02
  -0.9950888342E+00   0.5483160014E+00  -0.2204643419E-02  -0.6756086183E-02   0.1933979944E-01  -0.2204643419E-02   0.0000000000E+00   0.0000000000E+00   0.0000000000E+00   0.1155472928E-01  -0.1293494150E+01  -0.3471063837E-01   0.7766649802E-01  -0.4614646899E-01   0.3669598608E-01
  -0.9949167170E+00   0.5481400492E+00   0.1990066459E+00  -0.6583969027E-02   0.1916384724E-01  -0.9933571480E-03   0.0000000000E+00   0.0000000000E+00   0.0000000000E+00   0.3888654379E+00  -0.8899596981E+00   0.3569290913E+00  -0.1697909078E-01  -0.2427107379E-01   0.2874498012E-01
  -0.1194139377E+01   0.5648115113E+00  -0.1997803423E-02  -0.8006106921E-02   0.1986329133E-01  -0.1997803423E-02   0.0000000000E+00   0.0000000000E+00   0.0000000000E+00  -0.1228113509E+00  -0.1420363071E+01  -0.2175772787E+00   0.1742374592E+00   0.2509764289E-01   0.5153219284E-02
  -0.1193993979E+01   0.5647428377E+00   0.1991067234E+00  -0.7860709154E-02   0.1979461765E-01  -0.8932796222E-03   0.0000000000E+00   0.0000000000E+00   0.0000000000E+00   0.3887142310E+00  -0.9172869884E+00   0.2880943583E+00   0.1130204536E+00   0.1726279969E-01   0.6595181590E-02
  -0.1395827989E+01   0.5774201644E+00  -0.2003982127E-02  -0.9266239219E-02   0.2018885743E-01  -0.2003982127E-02   0.0000000000E+00   0.0000000000E+00   0.0000000000E+00  -0.6901625996E-01  -0.1306378955E+01  -0.1513990004E+00   0.1623388127E+00   0.3042974416E-01   0.5859574638E-02
  -0.1395710599E+01   0.5774372080E+00   0.1990655341E+00  -0.9148848794E-02   0.2020590097E-01  -0.9344688871E-03   0.0000000000E+00   0.0000000000E+00   0.0000000000E+00   0.2765483329E+00  -0.9675151608E+00   0.1896309700E+00   0.1143518020E+00   0.2043037182E-01   0.4329279523E-02
  -0.1599954462E+01   0.5878494554E+00  -0.2047579152E-02  -0.1050958224E-01   0.2050955840E-01  -0.2047579152E-02   0.0000000000E+00   0.0000000000E+00   0.0000000000E+00  -0.3181091038E-02  -0.1201404247E+01  -0.8089499380E-01   0.1513365922E+00   0.2753515003E-01   0.6907263838E-02
  -0.1599860326E+01   0.5879322777E+00   0.1989927083E+00  -0.1041544571E-01   0.2059238066E-01  -0.1007294750E-02   0.0000000000E+00   0.0000000000E+00   0.0000000000E+00   0.1971976311E+00  -0.1008108383E+01   0.1153959388E+00   0.1143164471E+00   0.1776251386E-01   0.3530905308E-02
  -0.1805947141E+01   0.5953394368E+00  -0.2054126258E-02  -0.1174791057E-01   0.2095069484E-01  -0.2054126258E-02   0.0000000000E+00   0.0000000000E+00   0.0000000000E+00   0.4870274063E-01  -0.1108550125E+01  -0.3476386140E-01   0.1046885366E+00   0.9114659633E-02   0.7325197879E-02
  -0.1805867401E+01   0.5954749056E+00   0.1989340616E+00  -0.1166817093E-01   0.2108616359E-01  -0.1065941419E-02   0.0000000000E+00   0.0000000000E+00   0.0000000000E+00   0.1222025551E+00  -0.1038984602E+01   0.3660302878E-01   0.7700486629E-01   0.6176806559E-02   0.3017381546E-02
  -0.2012980322E+01   0.6012223634E+00  -0.1937053398E-02  -0.1298032196E-01   0.2170261437E-01  -0.1937053398E-02   0.0000000000E+00   0.0000000000E+00   0.0000000000E+00   0.1268754076E+00  -0.9829764402E+00   0.1079501340E-01   0.6305839356E-01  -0.6532774987E-02  -0.1103910181E-01
  -0.2012909261E+01   0.6013702472E+00   0.1989393608E+00  -0.1290926108E-01   0.2185049816E-01  -0.1060642166E-02   0.0000000000E+00   0.0000000000E+00   0.0000000000E+00   0.1923726230E+00  -0.9208593969E+00   0.7512307791E-01   0.4307116693E-01  -0.4661160592E-02  -0.9296087433E-02
  -0.9510087437E+00   0.7430111076E+00  -0.2162909053E-02  -0.5159682726E-02   0.1660381763E-01  -0.2162909053E-02   0.0000000000E+00   0.0000000000E+00   0.0000000000E+00   0.7431744187E+00  -0.5239106562E+00   0.6685075422E+00  -0.1044320111E+00  -0.4606508385E-01  -0.8513391637E-01
  -0.9511738142E+00   0.7428601676E+00   0.1989607742E+00  -0.5324753231E-02   0.1645287757E-01  -0.1039228813E-02   0.0000000000E+00   0.0000000000E+00   0.0000000000E+00  -0.5994825573E-01  -0.1266840811E+01  -0.9473725257E-01  -0.1547698301E+00  -0.2160910669E-01  -0.4558096014E-01
  -0.1165665104E+01   0.7546054487E+00  -0.2094900886E-02  -0.6556583594E-02   0.1741865869E-01  -0.2094900886E-02   0.0000000000E+00   0.0000000000E+00   0.0000000000E+00   0.3934837811E+00  -0.8669963145E+00   0.2999872295E+00   0.7384937560E-01  -0.2521491955E-01  -0.6934829328E-01
  -0.1165766781E+01   0.7545483519E+00   0.1989808364E+00  -0.6658261050E-02   0.1736156187E-01  -0.1019166557E-02   0.0000000000E+00   0.0000000000E+00   0.0000000000E+00   0.1184817463E+00  -0.1116177389E+01   0.4321138095E-01   0.4337739480E-01  -0.1477476993E-01  -0.3847104816E-01
  -0.1375568127E+01   0.7664839143E+00  -0.2126467310E-02  -0.7882926870E-02   0.1786102028E-01  -0.2126467310E-02   0.0000000000E+00   0.0000000000E+00   0.0000000000E+00   0.3086659441E+00  -0.9164188242E+00   0.2232162024E+00   0.1040223296E+00  -0.3921700932E-02  -0.4775614563E-01
  -0.1375638390E+01   0.7665023904E+00   0.1989287959E+00  -0.7953190410E-02   0.1787949640E-01  -0.1071207148E-02   0.0000000000E+00   0.0000000000E+00   0.0000000000E+00   0.8063286133E-01  -0.1130067272E+01   0.6252672280E-02   0.7563373824E-01  -0.2314023595E-02  -0.2805010252E-01
  -0.1586200998E+01   0.7786823584E+00  -0.2190700652E-02  -0.9162237788E-02   0.1824117444E-01  -0.2190700652E-02   0.0000000000E+00   0.0000000000E+00   0.0000000000E+00   0.2113110300E+00  -0.9824589572E+00   0.1335353761E+00   0.1230833712E+00  -0.8407085118E-03  -0.2908975118E-01
  -0.1586259034E+01   0.7787632547E+00   0.1988474324E+00  -0.9220274280E-02   0.1832207067E-01  -0.1152570573E-02   0.0000000000E+00   0.0000000000E+00   0.0000000000E+00   0.8209303091E-01  -0.1106678959E+01   0.9250335846E-02   0.9872866893E-01  -0.1434158214E-02  -0.1837429203E-01
  -0.1798338895E+01   0.7889583554E+00  -0.2233501726E-02  -0.1042187542E-01   0.1873545338E-01  -0.2233501726E-02   0.0000000000E+00   0.0000000000E+00   0.0000000000E+00   0.1630844423E+00  -0.9974668895E+00   0.8431998431E-01   0.9352142934E-01  -0.5221299391E-02  -0.1961538079E-01
  -0.1798393986E+01   0.7890922061E+00   0.1987688653E+00  -0.1047696615E-01   0.1886930406E-01  -0.1231137724E-02   0.0000000000E+00   0.0000000000E+00   0.0000000000E+00   0.7844982047E-01  -0.1081038960E+01   0.1900349829E-02   0.7397160481E-01  -0.4144080385E-02  -0.1359985504E-01
  -0.2011688464E+01   0.7952852254E+00  -0.2232507231E-02  -0.1168846441E-01   0.1960444536E-01  -0.2232507231E-02   0.0000000000E+00   0.0000000000E+00   0.0000000000E+00   0.1582921546E+00  -0.9723315838E+00   0.6332079121E-01   0.6493674775E-01  -0.9142423199E-02  -0.3348650171E-01
  -0.2011743982E+01   0.7954317688E+00   0.1987073911E+00  -0.1174398161E-01   0.1975098884E-01  -0.1292611908E-02   0.0000000000E+00   0.0000000000E+00   0.0000000000E+00   0.1380733941E+00  -0.9928519503E+00   0.4425553652E-01   0.5002446881E-01  -0.7448690721E-02  -0.2352013703E-01
  -0.1793741810E+01   0.9839332996E+00  -0.2511231924E-02  -0.9203779992E-02   0.1651921859E-01  -0.2511231924E-02   0.0000000000E+00   0.0000000000E+00   0.0000000000E+00   0.6401293872E-01  -0.1062534033E+01   0.3494736823E-01   0.6314172457E-01  -0.2322717331E-02  -0.2467715360E-01
  -0.2010407790E+01   0.9909053823E+00  -0.2600334819E-02  -0.1040778990E-01   0.1744345630E-01  -0.2600334819E-02   0.0000000000E+00   0.0000000000E+00   0.0000000000E+00   0.5964723237E-01  -0.1057015526E+01   0.2361248200E-01   0.4257887910E-01   0.7246383616E-03  -0.3496637608E-01
  -0.1793827676E+01   0.9840614923E+00   0.1985559126E+00  -0.9289646112E-02   0.1664741128E-01  -0.1444090365E-02   0.0000000000E+00   0.0000000000E+00   0.0000000000E+00   0.5667978561E-01  -0.1075897500E+01   0.2570388901E-01   0.5333430276E-01  -0.6230652543E-02  -0.1655813995E-01
  -0.2010504700E+01   0.9910459156E+00   0.1984427218E+00  -0.1050470017E-01   0.1758398956E-01  -0.1557281188E-02   0.0000000000E+00   0.0000000000E+00   0.0000000000E+00   0.4737255880E-01  -0.1076330007E+01   0.8532136800E-02   0.3475872098E-01  -0.4687110746E-02  -0.2439965794E-01
  -0.1791534370E+01   0.1181524267E+01  -0.2764489010E-02  -0.8101889782E-02   0.1430963722E-01  -0.2764489010E-02   0.0000000000E+00   0.0000000000E+00   0.0000000000E+00   0.4496351848E-01  -0.1037336661E+01   0.6904857564E-01   0.4260298055E-01  -0.5116185462E-02  -0.1668550788E-01
  -0.2009213797E+01   0.1188418514E+01  -0.2927051481E-02  -0.9213796805E-02   0.1524592440E-01  -0.2927051481E-02   0.0000000000E+00   0.0000000000E+00   0.0000000000E+00   0.1600633509E-01  -0.1070291892E+01   0.4255447858E-01   0.2386760546E-01  -0.1809881708E-02  -0.2419883938E-01
  -0.1791676815E+01   0.1181636495E+01   0.1983647678E+00  -0.8244334808E-02   0.1442186527E-01  -0.1635235237E-02   0.0000000000E+00   0.0000000000E+00   0.0000000000E+00  -0.2287715803E-01  -0.1118901739E+01  -0.4352580479E-02   0.2798428035E-01  -0.4834946268E-02  -0.1166518550E-01
  -0.2009381297E+01   0.1188541560E+01   0.1982106334E+00  -0.9381296736E-02   0.1536897034E-01  -0.1789369615E-02   0.0000000000E+00   0.0000000000E+00   0.0000000000E+00  -0.3836337208E-01  -0.1140182546E+01  -0.1885758235E-01   0.1074800162E-01  -0.2441916505E-02  -0.1747571085E-01
  -0.1790989593E+01   0.1380987215E+01  -0.2947810604E-02  -0.7107693300E-02   0.1212887454E-01  -0.2947810604E-02   0.0000000000E+00   0.0000000000E+00   0.0000000000E+00   0.2230817137E-01  -0.1012837992E+01   0.9083121797E-01   0.2812149024E-01  -0.7081328811E-02  -0.9401554581E-02
  -0.2008125609E+01   0.1387430813E+01  -0.3159025205E-02  -0.8125608621E-02   0.1304366275E-01  -0.3159025205E-02   0.0000000000E+00   0.0000000000E+00   0.0000000000E+00  -0.1341886028E-01  -0.1062157378E+01   0.6427018848E-01   0.1063831278E-01  -0.6508532550E-02  -0.1360871693E-01
  -0.1791181844E+01   0.1381070797E+01   0.1982232971E+00  -0.7299944104E-02   0.1221245664E-01  -0.1776705891E-02   0.0000000000E+00   0.0000000000E+00   0.0000000000E+00  -0.7885151365E-01  -0.1135420954E+01  -0.1947611200E-01   0.1822257508E-01  -0.4932316605E-02  -0.6278665311E-02
  -0.2008354491E+01   0.1387522926E+01   0.1980434939E+00  -0.8354491483E-02   0.1313577573E-01  -0.1956509072E-02   0.0000000000E+00   0.0000000000E+00   0.0000000000E+00  -0.8181260009E-01  -0.1154125625E+01  -0.1492446413E-01   0.1853400076E-02  -0.3594138928E-02  -0.9702643058E-02
  -0.1791431180E+01   0.1581642962E+01  -0.3055793728E-02  -0.6199230146E-02   0.9997942067E-02  -0.3055793728E-02   0.0000000000E+00   0.0000000000E+00   0.0000000000E+00  -0.6318879250E-02  -0.9898896691E+00   0.9825480902E-01   0.2284139795E-01  -0.6505122221E-02  -0.3526277568E-02
  -0.2007123009E+01   0.1587441915E+01  -0.3298060754E-02  -0.7123009273E-02   0.1086758523E-01  -0.3298060754E-02   0.0000000000E+00   0.0000000000E+00   0.0000000000E+00  -0.3876563553E-01  -0.1042924008E+01   0.7959799873E-01   0.6161268779E-02  -0.1020858866E-01  -0.6738700448E-02
  -0.1791655796E+01   0.1581687722E+01   0.1981357706E+00  -0.6423846473E-02   0.1004270227E-01  -0.1864232445E-02   0.0000000000E+00   0.0000000000E+00   0.0000000000E+00  -0.1288873975E+00  -0.1139082834E+01  -0.3610099373E-01   0.1670859459E-01  -0.4101026170E-02  -0.1303629355E-02
  -0.2007392020E+01   0.1587492325E+01   0.1979412683E+00  -0.7392019692E-02   0.1091799483E-01  -0.2058734702E-02   0.0000000000E+00   0.0000000000E+00   0.0000000000E+00  -0.1152077408E+00  -0.1148461631E+01  -0.1030422825E-01   0.9053175601E-03  -0.4936697829E-02  -0.3638112153E-02
  -0.1792393034E+01   0.1783017380E+01  -0.3076777654E-02  -0.5344573630E-02   0.7941229883E-02  -0.3076777654E-02   0.0000000000E+00   0.0000000000E+00   0.0000000000E+00  -0.5219498728E-01  -0.9769461373E+00   0.7889573987E-01   0.2658765830E-01  -0.2911480774E-02   0.3273056831E-02
  -0.2006174992E+01   0.1788070510E+01  -0.3345714499E-02  -0.6174991584E-02   0.8747409840E-02  -0.3345714499E-02   0.0000000000E+00   0.0000000000E+00   0.0000000000E+00  -0.8352051528E-01  -0.1035336126E+01   0.6566849413E-01   0.9400354754E-02  -0.1009879588E-01  -0.1176190935E-02
  -0.1792631988E+01   0.1783017566E+01   0.1981087747E+00  -0.5583528090E-02   0.7941415776E-02  -0.1891228292E-02   0.0000000000E+00   0.0000000000E+00   0.0000000000E+00  -0.1700588084E+00  -0.1123580977E+01  -0.5207655721E-01   0.2476903587E-01  -0.1574640097E-02   0.4523803347E-02
  -0.2006461108E+01   0.1788073028E+01   0.1979028030E+00  -0.6461107691E-02   0.8749928254E-02  -0.2097199999E-02   0.0000000000E+00   0.0000000000E+00   0.0000000000E+00  -0.1573583371E+00  -0.1140552435E+01  -0.2284167051E-01   0.8417516663E-02  -0.4182275337E-02   0.1951763760E-02
  -0.1793602550E+01   0.1984835648E+01  -0.2995144404E-02  -0.4516209839E-02   0.5990287693E-02  -0.2995144404E-02   0.0000000000E+00   0.0000000000E+00   0.0000000000E+00  -0.6778819180E-01  -0.9217310531E+00   0.7933808144E-01   0.3818975136E-01   0.4301193512E-02   0.1305224964E-01
  -0.2005252154E+01   0.1989085338E+01  -0.3299063900E-02  -0.5252153712E-02   0.6713647574E-02  -0.3299063900E-02   0.0000000000E+00   0.0000000000E+00   0.0000000000E+00  -0.8941459024E-01  -0.9784451737E+00   0.8146305008E-01   0.1992613132E-01  -0.2781604697E-02   0.5538590807E-02
  -0.1793835744E+01   0.1984791216E+01   0.1981514441E+00  -0.4749404476E-02   0.5945856004E-02  -0.1848558862E-02   0.0000000000E+00   0.0000000000E+00   0.0000000000E+00  -0.1519425614E+00  -0.1032822781E+01  -0.1753598503E-01   0.4105879771E-01   0.3181971941E-02   0.1241281337E-01
  -0.2005529060E+01   0.1989039761E+01   0.1979298779E+00  -0.5529059605E-02   0.6668071418E-02  -0.2070125075E-02   0.0000000000E+00   0.0000000000E+00   0.0000000000E+00  -0.1594101044E+00  -0.1077847066E+01  -0.2633263139E-02   0.2395534373E-01   0.7546724005E-03   0.8512344948E-02
  -0.1794904604E+01   0.2186975770E+01  -0.2786560071E-02  -0.3694193706E-02   0.4187400227E-02  -0.2786560071E-02   0.0000000000E+00   0.0000000000E+00   0.0000000000E+00  -0.2486973924E+00  -0.1015142299E+01  -0.9845903641E-01   0.5636983926E-01   0.1577530105E-01   0.2874129338E-01
  -0.2004332379E+01   0.2190379734E+01  -0.3142415773E-02  -0.4332379265E-02   0.4802104010E-02  -0.3142415773E-02   0.0000000000E+00   0.0000000000E+00   0.0000000000E+00  -0.3300007370E+00  -0.1142677944E+01  -0.1477347974E+00   0.3798768410E-01   0.1544064651E-01   0.1742879125E-01
  -0.1795107634E+01   0.2186894489E+01   0.1982777626E+00  -0.3897223991E-02   0.4106118764E-02  -0.1722240423E-02   0.0000000000E+00   0.0000000000E+00   0.0000000000E+00  -0.2227674450E+00  -0.1008550452E+01  -0.8234211729E-01   0.6485240313E-01   0.1041212161E-01   0.2390099403E-01
  -0.2004566940E+01   0.2190294227E+01   0.1980315694E+00  -0.4566940414E-02   0.4716597237E-02  -0.1968433594E-02   0.0000000000E+00   0.0000000000E+00   0.0000000000E+00  -0.3571148485E+00  -0.1190933253E+01  -0.1857664922E+00   0.4867127766E-01   0.1163306398E-01   0.1823854655E-01
  -0.1796157363E+01   0.2389433289E+01  -0.2419555138E-02  -0.2864363014E-02   0.2589848689E-02  -0.2419555138E-02   0.0000000000E+00   0.0000000000E+00   0.0000000000E+00   0.1284551672E+00  -0.5232947064E+00   0.2660033841E+00   0.8068980330E-01   0.3110652201E-01   0.5414232463E-01
  -0.2003397336E+01   0.2391956064E+01  -0.2840196221E-02  -0.3397336378E-02   0.3061743682E-02  -0.2840196221E-02   0.0000000000E+00   0.0000000000E+00   0.0000000000E+00   0.1764216584E+00  -0.5342407102E+00   0.3564204026E+00   0.6661877097E-01   0.4657899233E-01   0.4260387872E-01
  -0.1796300032E+01   0.2389333687E+01   0.1985058354E+00  -0.3007031806E-02   0.2490246815E-02  -0.1494167598E-02   0.0000000000E+00   0.0000000000E+00   0.0000000000E+00   0.2383410128E+00  -0.4180310620E+00   0.3723593287E+00   0.9463413973E-01   0.1919107148E-01   0.4058567362E-01
  -0.2003548023E+01   0.2391850516E+01   0.1982285575E+00  -0.3548022642E-02   0.2956196000E-02  -0.1771445530E-02   0.0000000000E+00   0.0000000000E+00   0.0000000000E+00   0.1124257105E+00  -0.6032322462E+00   0.2882693266E+00   0.8411271344E-01   0.2851756363E-01   0.3526428353E-01
  -0.1797130864E+01   0.2592300282E+01  -0.1852099792E-02  -0.2013484156E-02   0.1276361750E-02  -0.1852099792E-02   0.0000000000E+00   0.0000000000E+00   0.0000000000E+00  -0.1645703727E+01  -0.2155721008E+01  -0.1540409860E+01   0.1080711470E+00   0.4784210992E-01   0.9288002432E-01
  -0.2002426585E+01   0.2593919913E+01  -0.2319075936E-02  -0.2426584822E-02   0.1569902837E-02  -0.2319075936E-02   0.0000000000E+00   0.0000000000E+00   0.0000000000E+00  -0.2247854319E+01  -0.2829694717E+01  -0.2091512295E+01   0.1045759730E+00   0.8608181663E-01   0.8735430728E-01
  -0.1797178258E+01   0.2592212944E+01   0.1988595859E+00  -0.2060877587E-02   0.1189024090E-02  -0.1140417071E-02   0.0000000000E+00   0.0000000000E+00   0.0000000000E+00  -0.1060908251E+01  -0.1552854321E+01  -0.9497456169E+00   0.1298167896E+00   0.2664919894E-01   0.6395310449E-01
  -0.2002448719E+01   0.2593827349E+01   0.1985631011E+00  -0.2448719132E-02   0.1477338670E-02  -0.1436901855E-02   0.0000000000E+00   0.0000000000E+00   0.0000000000E+00  -0.1962719349E+01  -0.2524618408E+01  -0.1800289792E+01   0.1315580684E+00   0.4718086809E-01   0.6245879322E-01
  -0.1797486937E+01   0.2795748818E+01  -0.1041425960E-02  -0.1100457459E-02   0.3579778408E-03  -0.1041425960E-02   0.0000000000E+00   0.0000000000E+00   0.0000000000E+00   0.4665975686E+01   0.4384571881E+01   0.4719562696E+01   0.1538748276E+00   0.5328814805E-01   0.1455535824E+00
  -0.2001358892E+01   0.2796484546E+01  -0.1439425706E-02  -0.1358892444E-02   0.4628461858E-03  -0.1439425706E-02   0.0000000000E+00   0.0000000000E+00   0.0000000000E+00   0.6346225893E+01   0.6009316580E+01   0.6444756961E+01   0.1779271317E+00   0.1047376688E+00   0.1842384543E+00
  -0.1797430464E+01   0.2795707631E+01   0.1993632527E+00  -0.1043983945E-02   0.3167914567E-03  -0.6367502537E-03   0.0000000000E+00   0.0000000000E+00   0.0000000000E+00   0.4382584256E+01   0.4131400094E+01   0.4448812820E+01   0.1594164674E+00   0.2426645356E-01   0.9250760001E-01
  -0.2001253561E+01   0.2796441274E+01   0.1991164474E+00  -0.1253560972E-02   0.4195739784E-03  -0.8835555510E-03   0.0000000000E+00   0.0000000000E+00   0.0000000000E+00   0.5605242648E+01   0.5301568636E+01   0.5717621500E+01   0.1810645851E+00   0.5059544918E-01   0.1173625609E+00
  -0.1797227740E+01   0.3000000000E+01   0.0000000000E+00   0.0000000000E+00   0.0000000000E+00   0.0000000000E+00   0.0000000000E+00   0.0000000000E+00   0.0000000000E+00  -0.1878224935E+02  -0.1885774617E+02  -0.1878235776E+02   0.1869104483E+00   0.4941705343E-04   0.1774588884E+00
  -0.2000000000E+01   0.3000000000E+01   0.0000000000E+00   0.0000000000E+00   0.0000000000E+00   0.0000000000E+00   0.0000000000E+00   0.0000000000E+00   0.0000000000E+00  -0.2552942065E+02  -0.2563199341E+02  -0.2552954561E+02   0.2339156558E+00   0.1173777997E-03   0.2562018409E+00
  -0.1797227740E+01   0.3000000000E+01   0.2000000030E+00   0.0000000000E+00   0.0000000000E+00   0.0000000000E+00   0.0000000000E+00   0.0000000000E+00   0.0000000000E+00  -0.1571663119E+02  -0.1577970268E+02  -0.1571667059E+02   0.1706796082E+00   0.2932693014E-04   0.1081432527E+00
  -0.2000000000E+01   0.3000000000E+01   0.2000000030E+00   0.0000000000E+00   0.0000000000E+00   0.0000000000E+00   0.0000000000E+00   0.0000000000E+00   0.0000000000E+00  -0.2231894736E+02  -0.2240850888E+02  -0.2231900065E+02   0.2065955013E+00   0.7043968184E-04   0.1566961055E+00
  -0.1578329721E+01   0.9732888585E+00  -0.2462515252E-02  -0.8020081186E-02   0.1597102946E-01  -0.2462515252E-02   0.0000000000E+00   0.0000000000E+00   0.0000000000E+00   0.2757710052E-01  -0.1114084303E+01   0.7531725366E-02   0.8544430675E-01  -0.7228571753E-02  -0.3072353683E-01
  -0.1578409210E+01   0.9733690480E+00   0.1986374976E+00  -0.8099570177E-02   0.1605121901E-01  -0.1362505418E-02   0.0000000000E+00   0.0000000000E+00   0.0000000000E+00   0.4774936206E-01  -0.1095066486E+01   0.2800584550E-01   0.7465896073E-01  -0.9633127359E-02  -0.1927620392E-01
  -0.1574990856E+01   0.1171277962E+01  -0.2673680580E-02  -0.7013305744E-02   0.1372953202E-01  -0.2673680580E-02   0.0000000000E+00   0.0000000000E+00   0.0000000000E+00   0.3864508995E-01  -0.1046040561E+01   0.6830020765E-01   0.6541624169E-01  -0.1121424090E-01  -0.1631434375E-01
  -0.1575114717E+01   0.1171350431E+01   0.1984689938E+00  -0.7137167085E-02   0.1380200062E-01  -0.1531009248E-02   0.0000000000E+00   0.0000000000E+00   0.0000000000E+00  -0.4423391926E-01  -0.1136357921E+01  -0.1708944901E-01   0.5012750872E-01  -0.9398285644E-02  -0.1106813259E-01
  -0.1574804135E+01   0.1371545065E+01  -0.2809632508E-02  -0.6114315028E-02   0.1154457482E-01  -0.2809632508E-02   0.0000000000E+00   0.0000000000E+00   0.0000000000E+00   0.2111038586E-01  -0.1004141038E+01   0.9019434542E-01   0.5018994221E-01  -0.1212046438E-01  -0.7453158606E-02
  -0.1574967604E+01   0.1371598945E+01   0.1983526484E+00  -0.6277784025E-02   0.1159845477E-01  -0.1647354614E-02   0.0000000000E+00   0.0000000000E+00   0.0000000000E+00  -0.9034030184E-01  -0.1130093218E+01  -0.2703279005E-01   0.4014472833E-01  -0.9208072159E-02  -0.5126152044E-02
  -0.1576511022E+01   0.1573230164E+01  -0.2869479958E-02  -0.5301112434E-02   0.9439484091E-02  -0.2869479958E-02   0.0000000000E+00   0.0000000000E+00   0.0000000000E+00  -0.5787733674E-03  -0.9623568807E+00   0.9885699310E-01   0.4416306871E-01  -0.9728958324E-02   0.7578150330E-03
  -0.1576699706E+01   0.1573256092E+01   0.1982900498E+00  -0.5489796029E-02   0.9465411510E-02  -0.1709953209E-02   0.0000000000E+00   0.0000000000E+00   0.0000000000E+00  -0.1208751116E+00  -0.1102096770E+01  -0.2969663897E-01   0.3805661722E-01  -0.7493512239E-02   0.6356045422E-03
  -0.1579235269E+01   0.1775764827E+01  -0.2846053271E-02  -0.4541109411E-02   0.7437947425E-02  -0.2846053271E-02   0.0000000000E+00   0.0000000000E+00   0.0000000000E+00  -0.4461874041E-01  -0.9366794458E+00   0.7561875208E-01   0.4721238061E-01  -0.5351292052E-02   0.8654256658E-02
  -0.1579435420E+01   0.1775757101E+01   0.1982851881E+00  -0.4741260487E-02   0.7430220734E-02  -0.1714814905E-02   0.0000000000E+00   0.0000000000E+00   0.0000000000E+00  -0.1397961171E+00  -0.1053628585E+01  -0.2923449421E-01   0.4537222165E-01  -0.4672263381E-02   0.6427956491E-02
  -0.1582459083E+01   0.1978820926E+01  -0.2730888896E-02  -0.3809082952E-02   0.5568396031E-02  -0.2730888896E-02   0.0000000000E+00   0.0000000000E+00   0.0000000000E+00  -0.7013544925E-01  -0.8820463161E+00   0.6166840936E-01   0.5748963273E-01  -0.4029946275E-03   0.1828742367E-01
  -0.1582655922E+01   0.1978778824E+01   0.1983430479E+00  -0.4005921688E-02   0.5526294153E-02  -0.1656955057E-02   0.0000000000E+00   0.0000000000E+00   0.0000000000E+00  -0.1111743193E+00  -0.9437992612E+00   0.1085469945E-01   0.5996240770E-01  -0.1347247585E-02   0.1348980592E-01
  -0.1585875399E+01   0.2182242430E+01  -0.2507872310E-02  -0.3086928860E-02   0.3866950149E-02  -0.2507872310E-02   0.0000000000E+00   0.0000000000E+00   0.0000000000E+00  -0.2614289355E+00  -0.9792919020E+00  -0.1286680125E+00   0.7252337044E-01   0.4233128530E-02   0.3144220083E-01
  -0.1586051832E+01   0.2182171935E+01   0.1984727732E+00  -0.3263361551E-02   0.3796454637E-02  -0.1527229801E-02   0.0000000000E+00   0.0000000000E+00   0.0000000000E+00  -0.1840581335E+00  -0.9168903774E+00  -0.5931293467E-01   0.7963509943E-01   0.2011304652E-02   0.2281078241E-01
  -0.1589190684E+01   0.2385993606E+01  -0.2159034195E-02  -0.2364473715E-02   0.2380496238E-02  -0.2159034195E-02   0.0000000000E+00   0.0000000000E+00   0.0000000000E+00   0.4699521776E-01  -0.5543135373E+00   0.1691205665E+00   0.8982427874E-01   0.7623584963E-02   0.5151132005E-01
  -0.1589325801E+01   0.2385909558E+01   0.1986844072E+00  -0.2499590755E-02   0.2296447531E-02  -0.1315595757E-02   0.0000000000E+00   0.0000000000E+00   0.0000000000E+00   0.2147666633E+00  -0.3902417785E+00   0.3330507405E+00   0.1011144539E+00   0.4510274346E-02   0.3597956258E-01
  -0.1591948281E+01   0.2590130462E+01  -0.1654468206E-02  -0.1633890620E-02   0.1171721951E-02  -0.1654468206E-02   0.0000000000E+00   0.0000000000E+00   0.0000000000E+00  -0.1638488405E+01  -0.2102772847E+01  -0.1541466244E+01   0.1057178251E+00   0.1058168057E-01   0.8023765183E-01
  -0.1592015104E+01   0.2590057274E+01   0.1989943674E+00  -0.1700713608E-02   0.1098534132E-02  -0.1005635639E-02   0.0000000000E+00   0.0000000000E+00   0.0000000000E+00  -0.1066244055E+01  -0.1516782769E+01  -0.9665277906E+00   0.1232430493E+00   0.5432972266E-02   0.5360918518E-01
  -0.1593577866E+01   0.2794759054E+01  -0.9540179577E-03  -0.8714261092E-03   0.3302236984E-03  -0.9540179577E-03   0.0000000000E+00   0.0000000000E+00   0.0000000000E+00   0.4126346524E+01   0.3873408997E+01   0.4182602474E+01   0.1293457684E+00   0.1328138506E-01   0.1290666520E+00
  -0.1593559968E+01   0.2794723998E+01   0.1994246364E+00  -0.8535278762E-03   0.2951675998E-03  -0.5753666329E-03   0.0000000000E+00   0.0000000000E+00   0.0000000000E+00   0.4035367567E+01   0.3805839206E+01   0.4099290215E+01   0.1366748073E+00   0.3199800472E-02   0.8064277700E-01
  -0.1594253180E+01   0.3000000000E+01   0.0000000000E+00   0.0000000000E+00   0.0000000000E+00   0.0000000000E+00   0.0000000000E+00   0.0000000000E+00   0.0000000000E+00  -0.1738646862E+02  -0.1745630115E+02  -0.1738654211E+02   0.1458034455E+00   0.3544049832E-04   0.1639284912E+00
  -0.1594253180E+01   0.3000000000E+01   0.2000000030E+00   0.0000000000E+00   0.0000000000E+00   0.0000000000E+00   0.0000000000E+00   0.0000000000E+00   0.0000000000E+00  -0.1475552137E+02  -0.1481470308E+02  -0.1475554200E+02   0.1383158152E+00   0.2021691022E-04   0.9850687697E-01
  -0.1364676279E+01   0.9619584117E+00  -0.2435856271E-02  -0.6841108766E-02   0.1553142367E-01  -0.2435856271E-02   0.0000000000E+00   0.0000000000E+00   0.0000000000E+00   0.2155195803E-01  -0.1128979977E+01   0.1301892519E-01   0.5900069426E-01  -0.1231441658E-01  -0.4190742094E-01
  -0.1364760656E+01   0.9619869058E+00   0.1986961164E+00  -0.6925486035E-02   0.1555991782E-01  -0.1303886615E-02   0.0000000000E+00   0.0000000000E+00   0.0000000000E+00   0.2003772065E-01  -0.1123627847E+01   0.1601197281E-01   0.5035825919E-01  -0.1240538306E-01  -0.2486473011E-01
  -0.1360448564E+01   0.1161137750E+01  -0.2615006770E-02  -0.5935993948E-02   0.1325457038E-01  -0.2615006770E-02   0.0000000000E+00   0.0000000000E+00   0.0000000000E+00   0.7461618785E-01  -0.1009856543E+01   0.1123467104E+00   0.4584239669E-01  -0.1202171264E-01  -0.1685927808E-01
  -0.1360566923E+01   0.1161170785E+01   0.1985440264E+00  -0.6054352999E-02   0.1328760486E-01  -0.1455976640E-02   0.0000000000E+00   0.0000000000E+00   0.0000000000E+00  -0.7563310191E-01  -0.1158823520E+01  -0.3551197762E-01   0.3253716132E-01  -0.1036450796E-01  -0.1119674210E-01
  -0.1360662574E+01   0.1362569182E+01  -0.2717239627E-02  -0.5139704037E-02   0.1106366195E-01  -0.2717239627E-02   0.0000000000E+00   0.0000000000E+00   0.0000000000E+00   0.5073549779E-01  -0.9623049012E+00   0.1259966118E+00   0.3258274345E-01  -0.1328458933E-01  -0.7428147785E-02
  -0.1360810724E+01   0.1362595718E+01   0.1984455014E+00  -0.5287854348E-02   0.1109019776E-01  -0.1554501557E-02   0.0000000000E+00   0.0000000000E+00   0.0000000000E+00  -0.1281352269E+00  -0.1147524181E+01  -0.5418645162E-01   0.2468926043E-01  -0.1058712584E-01  -0.5307480399E-02
  -0.1363508609E+01   0.1565392586E+01  -0.2742201094E-02  -0.4427938694E-02   0.8980725789E-02  -0.2742201094E-02   0.0000000000E+00   0.0000000000E+00   0.0000000000E+00   0.2560810667E-01  -0.9135912368E+00   0.1280005397E+00   0.2866042275E-01  -0.1126426307E-01   0.3491875050E-02
  -0.1363674461E+01   0.1565402788E+01   0.1984009110E+00  -0.4593791367E-02   0.8990927897E-02  -0.1599091961E-02   0.0000000000E+00   0.0000000000E+00   0.0000000000E+00  -0.1579205008E+00  -0.1108801966E+01  -0.5963907808E-01   0.2403645388E-01  -0.9157009495E-02   0.1522190296E-02
  -0.1367781431E+01   0.1769080737E+01  -0.2688499560E-02  -0.3767280861E-02   0.7026056589E-02  -0.2688499560E-02   0.0000000000E+00   0.0000000000E+00   0.0000000000E+00  -0.2743255436E-01  -0.8879627685E+00   0.9257176093E-01   0.3201683203E-01  -0.7955776814E-02   0.1201732855E-01
  -0.1367954812E+01   0.1769068287E+01   0.1984108652E+00  -0.3940662155E-02   0.7013607408E-02  -0.1589137762E-02   0.0000000000E+00   0.0000000000E+00   0.0000000000E+00  -0.1736100738E+00  -0.1048768726E+01  -0.5963240109E-01   0.3079777711E-01  -0.7030471054E-02   0.7234658558E-02
  -0.1372766029E+01   0.1973317350E+01  -0.2554714285E-02  -0.3135449339E-02   0.5223240051E-02  -0.2554714285E-02   0.0000000000E+00   0.0000000000E+00   0.0000000000E+00  -0.6656566382E-01  -0.8400951041E+00   0.6281403756E-01   0.4124157559E-01  -0.4333098453E-02   0.2151652967E-01
  -0.1372936482E+01   0.1973280505E+01   0.1984759729E+00  -0.3305901734E-02   0.5186395446E-02  -0.1524030120E-02   0.0000000000E+00   0.0000000000E+00   0.0000000000E+00  -0.1430568145E+00  -0.9312240392E+00  -0.2051544122E-01   0.4324265680E-01  -0.4586560213E-02   0.1372955490E-01
  -0.1378017578E+01   0.2177940599E+01  -0.2327828359E-02  -0.2515828429E-02   0.3602019055E-02  -0.2327828359E-02   0.0000000000E+00   0.0000000000E+00   0.0000000000E+00  -0.2539191625E+00  -0.9292980365E+00  -0.1245989258E+00   0.5404112065E-01  -0.7357625873E-03   0.3336379615E-01
  -0.1378173601E+01   0.2177883173E+01   0.1986034102E+00  -0.2671850919E-02   0.3544593416E-02  -0.1396592791E-02   0.0000000000E+00   0.0000000000E+00   0.0000000000E+00  -0.1979245901E+00  -0.8843126793E+00  -0.7483597755E-01   0.5929340108E-01  -0.1867971131E-02   0.2184461734E-01
  -0.1383080427E+01   0.2382899788E+01  -0.1994866997E-02  -0.1902767425E-02   0.2201588144E-02  -0.1994866997E-02   0.0000000000E+00   0.0000000000E+00   0.0000000000E+00   0.1049590445E-01  -0.5475629240E+00   0.1301882289E+00   0.6828295616E-01   0.2556254812E-02   0.5074190345E-01
  -0.1383207932E+01   0.2382832412E+01   0.1988002582E+00  -0.2030272465E-02   0.2134212067E-02  -0.1199744782E-02   0.0000000000E+00   0.0000000000E+00   0.0000000000E+00   0.1869086491E+00  -0.3745003292E+00   0.3027057126E+00   0.7638505464E-01   0.8807938871E-03   0.3316975726E-01
  -0.1387303464E+01   0.2588214130E+01  -0.1526350476E-02  -0.1292463738E-02   0.1075480461E-02  -0.1526350476E-02   0.0000000000E+00   0.0000000000E+00   0.0000000000E+00  -0.1526893911E+01  -0.1950826342E+01  -0.1429722842E+01   0.8159257071E-01   0.7122450973E-02   0.7544883109E-01
  -0.1387381647E+01   0.2588154851E+01   0.1990828653E+00  -0.1370647434E-02   0.1016200788E-02  -0.9171376851E-03   0.0000000000E+00   0.0000000000E+00   0.0000000000E+00  -0.9429964125E+00  -0.1357655656E+01  -0.8455253345E+00   0.9475305547E-01   0.3692521631E-02   0.4866985419E-01
  -0.1389983528E+01   0.2793911825E+01  -0.8821508327E-03  -0.6742378107E-03   0.3007745746E-03  -0.8821508327E-03   0.0000000000E+00   0.0000000000E+00   0.0000000000E+00   0.3622135485E+01   0.3395831056E+01   0.3681501102E+01   0.9927094558E-01   0.1308674280E-01   0.1191588401E+00
  -0.1389991797E+01   0.2793882353E+01   0.1994739037E+00  -0.6825067022E-03   0.2713028154E-03  -0.5260992892E-03   0.0000000000E+00   0.0000000000E+00   0.0000000000E+00   0.3758203409E+01   0.3549134854E+01   0.3821367500E+01   0.1070597912E+00   0.4822767123E-02   0.7328843288E-01
  -0.1391371730E+01   0.3000000000E+01   0.0000000000E+00   0.0000000000E+00   0.0000000000E+00   0.0000000000E+00   0.0000000000E+00   0.0000000000E+00   0.0000000000E+00  -0.1568762700E+02  -0.1575055972E+02  -0.1568765517E+02   0.1113101581E+00   0.2519257478E-04   0.1511899414E+00
  -0.1391371730E+01   0.3000000000E+01   0.2000000030E+00   0.0000000000E+00   0.0000000000E+00   0.0000000000E+00   0.0000000000E+00   0.0000000000E+00   0.0000000000E+00  -0.1342485806E+02  -0.1347868383E+02  -0.1342486740E+02   0.1097960361E+00   0.1418096513E-04   0.8983781547E-01
  -0.1152984097E+01   0.9539071934E+00  -0.2480340469E-02  -0.5660727365E-02   0.1498186742E-01  -0.2480340469E-02   0.0000000000E+00   0.0000000000E+00   0.0000000000E+00  -0.1645059348E-01  -0.1173368223E+01  -0.2217433870E-02   0.1555314628E-01  -0.4012846360E-01  -0.5353591086E-01
  -0.1153091385E+01   0.9538799898E+00   0.1987031641E+00  -0.5768015347E-02   0.1495466377E-01  -0.1296838912E-02   0.0000000000E+00   0.0000000000E+00   0.0000000000E+00  -0.2638765556E-01  -0.1162207267E+01  -0.8608687944E-03   0.1143543221E-01  -0.2821749908E-01  -0.3086214567E-01
  -0.1149063213E+01   0.1155700818E+01  -0.2592900786E-02  -0.4864792896E-02   0.1265443789E-01  -0.2592900786E-02   0.0000000000E+00   0.0000000000E+00   0.0000000000E+00   0.1069728077E+00  -0.9714355564E+00   0.1580811342E+00   0.5824034757E-02  -0.2763602811E-01  -0.1186792586E-01
  -0.1149193235E+01   0.1155695204E+01   0.1985873197E+00  -0.4994814841E-02   0.1264882443E-01  -0.1412683295E-02   0.0000000000E+00   0.0000000000E+00   0.0000000000E+00  -0.7209704322E-01  -0.1139144097E+01  -0.1297920579E-01  -0.4349522143E-02  -0.1912096361E-01  -0.8511249605E-02
  -0.1150182030E+01   0.1358539285E+01  -0.2650575414E-02  -0.4184509789E-02   0.1046389463E-01  -0.2650575414E-02   0.0000000000E+00   0.0000000000E+00   0.0000000000E+00   0.5280979310E-01  -0.9416508776E+00   0.1385243912E+00  -0.1011145070E-01  -0.1797214806E-01  -0.5746622931E-02
  -0.1150329492E+01   0.1358540633E+01   0.1985145892E+00  -0.4331972383E-02   0.1046524260E-01  -0.1485413829E-02   0.0000000000E+00   0.0000000000E+00   0.0000000000E+00  -0.1517253126E+00  -0.1144263742E+01  -0.6306836959E-01  -0.1457312414E-01  -0.1302300907E-01  -0.4886606648E-02
  -0.1154124440E+01   0.1562169943E+01  -0.2625279723E-02  -0.3582540371E-02   0.8420623009E-02  -0.2625279723E-02   0.0000000000E+00   0.0000000000E+00   0.0000000000E+00   0.2410968668E-01  -0.8854154028E+00   0.1315803069E+00  -0.9521757911E-02  -0.6328054210E-02   0.9268788348E-02
  -0.1154280124E+01   0.1562166152E+01   0.1984983221E+00  -0.3738223521E-02   0.8416831836E-02  -0.1501680917E-02   0.0000000000E+00   0.0000000000E+00   0.0000000000E+00  -0.1773126518E+00  -0.1091648604E+01  -0.7055719996E-01  -0.1157043018E-01  -0.6128566063E-02   0.3856050651E-02
  -0.1159605905E+01   0.1766452179E+01  -0.2532030373E-02  -0.3027004515E-02   0.6535399169E-02  -0.2532030373E-02   0.0000000000E+00   0.0000000000E+00   0.0000000000E+00  -0.3908683331E-01  -0.8605627682E+00   0.8167561256E-01  -0.1145233412E-02   0.2229487035E-02   0.1684060857E-01
  -0.1159763207E+01   0.1766435395E+01   0.1985296757E+00  -0.3184306618E-02   0.6518615056E-02  -0.1470327316E-02   0.0000000000E+00   0.0000000000E+00   0.0000000000E+00  -0.1871998988E+00  -0.1017480404E+01  -0.6978243590E-01  -0.6561778952E-03  -0.1115975441E-02   0.8781584833E-02
  -0.1165866369E+01   0.1971223869E+01  -0.2374690523E-02  -0.2499458868E-02   0.4823008633E-02  -0.2374690523E-02   0.0000000000E+00   0.0000000000E+00   0.0000000000E+00  -0.8471462956E-01  -0.8123890234E+00   0.4258499401E-01   0.1380833671E-01   0.7364245401E-02   0.2553962352E-01
  -0.1166018755E+01   0.1971190881E+01   0.1986058181E+00  -0.2651845161E-02   0.4790021500E-02  -0.1394184903E-02   0.0000000000E+00   0.0000000000E+00   0.0000000000E+00  -0.1495694241E+00  -0.8872598305E+00  -0.2709882310E-01   0.1641101626E-01   0.2031419254E-02   0.1453770486E-01
  -0.1172377310E+01   0.2176368975E+01  -0.2141727752E-02  -0.1984320489E-02   0.3304025131E-02  -0.2141727752E-02   0.0000000000E+00   0.0000000000E+00   0.0000000000E+00  -0.2633489387E+00  -0.8897205892E+00  -0.1376403439E+00   0.3127185788E-01   0.9652685911E-02   0.3525412672E-01
  -0.1172517735E+01   0.2176321481E+01   0.1987331713E+00  -0.2124745333E-02   0.3256530525E-02  -0.1266831678E-02   0.0000000000E+00   0.0000000000E+00   0.0000000000E+00  -0.1879934174E+00  -0.8225691282E+00  -0.6740931877E-01   0.3589267942E-01   0.3863534694E-02   0.2118380673E-01
  -0.1178580666E+01   0.2381840732E+01  -0.1824881460E-02  -0.1481436283E-02   0.2007511568E-02  -0.1824881460E-02   0.0000000000E+00   0.0000000000E+00   0.0000000000E+00  -0.3692142366E-01  -0.5471033846E+00   0.7981767246E-01   0.4817677783E-01   0.9257375540E-02   0.4941482932E-01
  -0.1178700141E+01   0.2381785962E+01   0.1989162061E+00  -0.1600911088E-02   0.1952741620E-02  -0.1083796893E-02   0.0000000000E+00   0.0000000000E+00   0.0000000000E+00   0.1713853484E+00  -0.3420540931E+00   0.2839710268E+00   0.5454988836E-01   0.4550385734E-02   0.3051328411E-01
  -0.1183753696E+01   0.2587629051E+01  -0.1394451941E-02  -0.9894061166E-03   0.9758205634E-03  -0.1394451941E-02   0.0000000000E+00   0.0000000000E+00   0.0000000000E+00  -0.1443921653E+01  -0.1825878725E+01  -0.1347485928E+01   0.6194190636E-01   0.8220105802E-02   0.6975919287E-01
  -0.1183836603E+01   0.2587580346E+01   0.1991715631E+00  -0.1072313313E-02   0.9271162936E-03  -0.8284399098E-03   0.0000000000E+00   0.0000000000E+00   0.0000000000E+00  -0.8515735586E+00  -0.1227587921E+01  -0.7567724640E+00   0.7228896207E-01   0.4591981479E-02   0.4362777036E-01
  -0.1187169171E+01   0.2793707443E+01  -0.8104701942E-03  -0.5063811033E-03   0.2721026481E-03  -0.8104701942E-03   0.0000000000E+00   0.0000000000E+00   0.0000000000E+00   0.3161339350E+01   0.2960591364E+01   0.3222675254E+01   0.7507261249E-01   0.8696815580E-02   0.1090607544E+00
  -0.1187193940E+01   0.2793682366E+01   0.1995219373E+00  -0.5311498397E-03   0.2470260483E-03  -0.4780657130E-03   0.0000000000E+00   0.0000000000E+00   0.0000000000E+00   0.3452360352E+01   0.3264238956E+01   0.3514526108E+01   0.8309772843E-01   0.3441111856E-02   0.6608695470E-01
  -0.1189031000E+01   0.3000000000E+01   0.0000000000E+00   0.0000000000E+00   0.0000000000E+00   0.0000000000E+00   0.0000000000E+00   0.0000000000E+00   0.0000000000E+00  -0.1417281082E+02  -0.1422962349E+02  -0.1417281472E+02   0.8283379439E-01  -0.1337059049E-04   0.1392160673E+00
  -0.1189031000E+01   0.3000000000E+01   0.2000000030E+00   0.0000000000E+00   0.0000000000E+00   0.0000000000E+00   0.0000000000E+00   0.0000000000E+00   0.0000000000E+00  -0.1220273119E+02  -0.1225166018E+02  -0.1220274129E+02   0.8518606708E-01  -0.7064023395E-05   0.8182314508E-01
  -0.9419335954E+00   0.9529870403E+00  -0.2535576982E-02  -0.4484497443E-02   0.1399734134E-01  -0.2535576982E-02   0.0000000000E+00   0.0000000000E+00   0.0000000000E+00  -0.6320550587E-01  -0.1198215048E+01  -0.1401107292E-01  -0.1497536731E+00   0.9231081811E-02  -0.5536877954E-01
  -0.9420869013E+00   0.9528945294E+00   0.1986950857E+00  -0.4637803296E-02   0.1390483037E-01  -0.1304917301E-02   0.0000000000E+00   0.0000000000E+00   0.0000000000E+00  -0.2968992289E+00  -0.1401168526E+01  -0.2322218838E+00  -0.1608508061E+00   0.6544010777E-02  -0.3145209210E-01
  -0.9415447900E+00   0.1159248642E+01  -0.2512600787E-02  -0.3804345030E-02   0.1164537187E-01  -0.2512600787E-02   0.0000000000E+00   0.0000000000E+00   0.0000000000E+00   0.7007805929E-01  -0.9902213290E+00   0.1271033516E+00  -0.1097591657E+00   0.3367790820E-01   0.2743602862E-02
  -0.9417041730E+00   0.1159200770E+01   0.1986602724E+00  -0.3963727968E-02   0.1159749971E-01  -0.1339730614E-02   0.0000000000E+00   0.0000000000E+00   0.0000000000E+00  -0.2732319251E+00  -0.1309886184E+01  -0.2031803909E+00  -0.1259712956E+00   0.2057828256E-01  -0.1287401173E-02
  -0.9447279495E+00   0.1363215275E+01  -0.2483390401E-02  -0.3259591503E-02   0.9518695005E-02  -0.2483390401E-02   0.0000000000E+00   0.0000000000E+00   0.0000000000E+00  -0.2452002180E-02  -0.9571069348E+00   0.8264546251E-01  -0.1024700443E+00   0.4036995850E-01   0.2938982173E-02
  -0.9448871233E+00   0.1363191186E+01   0.1986394816E+00  -0.3418765274E-02   0.9494605792E-02  -0.1360521379E-02   0.0000000000E+00   0.0000000000E+00   0.0000000000E+00  -0.3121236381E+00  -0.1257371260E+01  -0.2218051920E+00  -0.1102856814E+00   0.2355363794E-01  -0.1318679577E-02
  -0.9497933931E+00   0.1566722404E+01  -0.2388749365E-02  -0.2775306147E-02   0.7592454371E-02  -0.2388749365E-02   0.0000000000E+00   0.0000000000E+00   0.0000000000E+00  -0.1330692772E-01  -0.8696636351E+00   0.8527269114E-01  -0.7291106600E-01   0.4101785514E-01   0.1792982240E-01
  -0.9499484235E+00   0.1566705753E+01   0.1986630062E+00  -0.2930336474E-02   0.7575803165E-02  -0.1336996780E-02   0.0000000000E+00   0.0000000000E+00   0.0000000000E+00  -0.2588881507E+00  -0.1114229758E+01  -0.1593069869E+00  -0.7794645406E-01   0.2314142326E-01   0.7246535703E-02
  -0.9559917050E+00   0.1770507572E+01  -0.2262388446E-02  -0.2329965007E-02   0.5852932001E-02  -0.2262388446E-02   0.0000000000E+00   0.0000000000E+00   0.0000000000E+00  -0.6231503042E-01  -0.8218970521E+00   0.4600662078E-01  -0.4615767751E-01   0.3728466753E-01   0.2047250463E-01
  -0.9561402467E+00   0.1770487420E+01   0.1987119482E+00  -0.2478506656E-02   0.5832780056E-02  -0.1288054773E-02   0.0000000000E+00   0.0000000000E+00   0.0000000000E+00  -0.2222962870E+00  -0.9864911943E+00  -0.1161413658E+00  -0.4820299059E-01   0.2039630894E-01   0.9290757376E-02
  -0.9628038416E+00   0.1974681187E+01  -0.2102144847E-02  -0.1909137589E-02   0.4297067291E-02  -0.2102144847E-02   0.0000000000E+00   0.0000000000E+00   0.0000000000E+00  -0.1005168134E+00  -0.7633697103E+00   0.1377119174E-01  -0.1785165888E-01   0.3143363541E-01   0.2633525832E-01
  -0.9629434565E+00   0.1974651982E+01   0.1987871388E+00  -0.2048752476E-02   0.4267861837E-02  -0.1212864216E-02   0.0000000000E+00   0.0000000000E+00   0.0000000000E+00  -0.1604622574E+00  -0.8303186476E+00  -0.5017987736E-01  -0.1772683089E-01   0.1671628593E-01   0.1336627821E-01
  -0.9697459596E+00   0.2179186022E+01  -0.1888093282E-02  -0.1498069577E-02   0.2931991664E-02  -0.1888093282E-02   0.0000000000E+00   0.0000000000E+00   0.0000000000E+00  -0.2601505062E+00  -0.8238724611E+00  -0.1463896402E+00   0.7227035308E-02   0.2497178414E-01   0.3324696898E-01
  -0.9698734823E+00   0.2179147167E+01   0.1989000849E+00  -0.1625592269E-02   0.2893136505E-02  -0.1099918100E-02   0.0000000000E+00   0.0000000000E+00   0.0000000000E+00  -0.1780454467E+00  -0.7483689202E+00  -0.6909365427E-01   0.9300121752E-02   0.1309350538E-01   0.1833547529E-01
  -0.9762900461E+00   0.2383986277E+01  -0.1610449056E-02  -0.1103400080E-02   0.1775787393E-02  -0.1610449056E-02   0.0000000000E+00   0.0000000000E+00   0.0000000000E+00  -0.6779899752E-01  -0.5220678478E+00   0.3981908408E-01   0.2760127568E-01   0.1799687775E-01   0.4463549399E-01
  -0.9764005295E+00   0.2383942139E+01   0.1990562469E+00  -0.1213883537E-02   0.1731648881E-02  -0.9437561142E-03   0.0000000000E+00   0.0000000000E+00   0.0000000000E+00   0.1481018353E+00  -0.3096863307E+00   0.2510834557E+00   0.3132065855E-01   0.9716534811E-02   0.2604012732E-01
  -0.9817848922E+00   0.2589073977E+01  -0.1234971423E-02  -0.7244472121E-03   0.8610065300E-03  -0.1234971423E-02   0.0000000000E+00   0.0000000000E+00   0.0000000000E+00  -0.1319686231E+01  -0.1656398230E+01  -0.1228858824E+01   0.4235794596E-01   0.1226836987E-01   0.6218218031E-01
  -0.9818672064E+00   0.2589034238E+01   0.1992750157E+00  -0.8067613825E-03   0.8212678046E-03  -0.7249873036E-03   0.0000000000E+00   0.0000000000E+00   0.0000000000E+00  -0.7531449151E+00  -0.1086542369E+01  -0.6654424279E+00   0.4969293687E-01   0.7099255652E-02   0.3766991680E-01
  -0.9855704320E+00   0.2794433938E+01  -0.7217362974E-03  -0.3650799965E-03   0.2397178945E-03  -0.7217362974E-03   0.0000000000E+00   0.0000000000E+00   0.0000000000E+00   0.2723904768E+01   0.2548873183E+01   0.2783210755E+01   0.5356712697E-01   0.9484486557E-02   0.9733559218E-01
  -0.9856041661E+00   0.2794412793E+01   0.1995791085E+00  -0.3988140622E-03   0.2185727444E-03  -0.4208944902E-03   0.0000000000E+00   0.0000000000E+00   0.0000000000E+00   0.3087606987E+01   0.2921699807E+01   0.3145717676E+01   0.6099474770E-01   0.4708764045E-02   0.5806053122E-01
  -0.9877309200E+00   0.3000000000E+01   0.0000000000E+00   0.0000000000E+00   0.0000000000E+00   0.0000000000E+00   0.0000000000E+00   0.0000000000E+00   0.0000000000E+00  -0.1252252437E+02  -0.1257270348E+02  -0.1252251869E+02   0.5957275223E-01  -0.2019454945E-04   0.1247006728E+00
  -0.9877309200E+00   0.3000000000E+01   0.2000000030E+00   0.0000000000E+00   0.0000000000E+00   0.0000000000E+00   0.0000000000E+00   0.0000000000E+00   0.0000000000E+00  -0.1082385328E+02  -0.1086724174E+02  -0.1082385641E+02   0.6419198014E-01  -0.1083928656E-04   0.7246824229E-01
  -0.7269338570E+00   0.9606022116E+00  -0.1839491922E-02  -0.3305693990E-02   0.1185809360E-01  -0.1839491922E-02   0.0000000000E+00   0.0000000000E+00   0.0000000000E+00  -0.7954060142E+00  -0.1857475897E+01  -0.8298528553E+00  -0.2865411094E+00   0.1260551359E+00  -0.3988092047E-01
  -0.7271533316E+00   0.9604164929E+00   0.1991425543E+00  -0.3525168593E-02   0.1167237493E-01  -0.8574486589E-03   0.0000000000E+00   0.0000000000E+00   0.0000000000E+00   0.2011277505E+00  -0.7976528915E+00   0.1875283874E+00  -0.2658460821E+00   0.8106328327E-01  -0.1955724179E-01
  -0.7350401777E+00   0.1170205970E+01  -0.1820193268E-02  -0.2773691652E-02   0.9870429856E-02  -0.1820193268E-02   0.0000000000E+00   0.0000000000E+00   0.0000000000E+00  -0.4316541617E+00  -0.1356139097E+01  -0.4304196593E+00  -0.1954617010E+00   0.9288328082E-01  -0.1672161616E-01
  -0.7352396397E+00   0.1170097057E+01   0.1990999441E+00  -0.2973153666E-02   0.9761517250E-02  -0.9000589083E-03   0.0000000000E+00   0.0000000000E+00   0.0000000000E+00   0.1879588671E+00  -0.7069362354E+00   0.1978534617E+00  -0.1897435226E+00   0.5840808335E-01  -0.1076701832E-01
  -0.7413423718E+00   0.1373195119E+01  -0.1839343293E-02  -0.2384608785E-02   0.8099739043E-02  -0.1839343293E-02   0.0000000000E+00   0.0000000000E+00   0.0000000000E+00  -0.3678182113E+00  -0.1202666288E+01  -0.3392995527E+00  -0.1626996672E+00   0.7937966945E-01  -0.1389313844E-01
  -0.7415196628E+00   0.1373129682E+01   0.1990469500E+00  -0.2561899843E-02   0.8034302202E-02  -0.9530530280E-03   0.0000000000E+00   0.0000000000E+00   0.0000000000E+00   0.1292406456E+00  -0.6884943984E+00   0.1616233330E+00  -0.1536101749E+00   0.4798474045E-01  -0.9558604123E-02
  -0.7475945536E+00   0.1575294599E+01  -0.1830560958E-02  -0.2025503601E-02   0.6491529380E-02  -0.1830560958E-02   0.0000000000E+00   0.0000000000E+00   0.0000000000E+00  -0.3002911683E+00  -0.1042837467E+01  -0.2454226133E+00  -0.1100063016E+00   0.6376961514E-01  -0.2323463091E-02
  -0.7477530747E+00   0.1575250143E+01   0.1990172233E+00  -0.2184024709E-02   0.6447072656E-02  -0.9827796675E-03   0.0000000000E+00   0.0000000000E+00   0.0000000000E+00   0.7564172181E-01  -0.6615744130E+00   0.1296943553E+00  -0.1035292102E+00   0.3721184401E-01  -0.3532117101E-02
  -0.7543540885E+00   0.1777842725E+01  -0.1793234425E-02  -0.1692681538E-02   0.5025824825E-02  -0.1793234425E-02   0.0000000000E+00   0.0000000000E+00   0.0000000000E+00  -0.2947804017E+00  -0.9546753099E+00  -0.2205537619E+00  -0.7199454479E-01   0.5082793666E-01   0.3427854942E-02
  -0.7544968195E+00   0.1777805212E+01   0.1990110160E+00  -0.1835412476E-02   0.4988312398E-02  -0.9889869891E-03   0.0000000000E+00   0.0000000000E+00   0.0000000000E+00   0.2747758930E-01  -0.6333272476E+00   0.9820288237E-01  -0.6620428263E-01   0.2862903386E-01  -0.1154505869E-03
  -0.7614937801E+00   0.1980824183E+01  -0.1715985981E-02  -0.1377799094E-02   0.3702953147E-02  -0.1715985981E-02   0.0000000000E+00   0.0000000000E+00   0.0000000000E+00  -0.2922245043E+00  -0.8679196893E+00  -0.2029506055E+00  -0.3655307910E-01   0.3916349492E-01   0.1197552576E-01
  -0.7616226292E+00   0.1980785956E+01   0.1990343071E+00  -0.1506648154E-02   0.3664725892E-02  -0.9656958735E-03   0.0000000000E+00   0.0000000000E+00   0.0000000000E+00   0.1625976397E-01  -0.5637248369E+00   0.1003273805E+00  -0.3149090694E-01   0.2129195815E-01   0.5086091220E-02
  -0.7686252819E+00   0.2184064243E+01  -0.1576325287E-02  -0.1066826879E-02   0.2534243383E-02  -0.1576325287E-02   0.0000000000E+00   0.0000000000E+00   0.0000000000E+00  -0.4048572176E+00  -0.8945528076E+00  -0.3092721918E+00  -0.8458623909E-02   0.2885424342E-01   0.2121695785E-01
  -0.7687406600E+00   0.2184022701E+01   0.1991000780E+00  -0.1182205046E-02   0.2492701288E-02  -0.8999249979E-03   0.0000000000E+00   0.0000000000E+00   0.0000000000E+00  -0.4141648740E-01  -0.5360264853E+00   0.4818955465E-01  -0.3654076451E-02   0.1521162910E-01   0.1103451486E-01
  -0.7753752075E+00   0.2387530074E+01  -0.1369874018E-02  -0.7745224606E-03   0.1538974391E-02  -0.1369874018E-02   0.0000000000E+00   0.0000000000E+00   0.0000000000E+00  -0.2138595527E+00  -0.6079209073E+00  -0.1186003398E+00   0.1238928922E-01   0.1959285134E-01   0.3380697415E-01
  -0.7754755071E+00   0.2387487196E+01   0.1992106782E+00  -0.8748221157E-03   0.1496096165E-02  -0.7893248234E-03   0.0000000000E+00   0.0000000000E+00   0.0000000000E+00   0.2153965517E+00  -0.1819063391E+00   0.3045991752E+00   0.1710969228E-01   0.1034856365E-01   0.1914326690E-01
  -0.7812435856E+00   0.2591259495E+01  -0.1064489275E-02  -0.4992716059E-03   0.7486446072E-03  -0.1064489275E-02   0.0000000000E+00   0.0000000000E+00   0.0000000000E+00  -0.1311451933E+01  -0.1602969336E+01  -0.1228377076E+01   0.2664430146E-01   0.1206733961E-01   0.5161782861E-01
  -0.7813216264E+00   0.2591222095E+01   0.1993843454E+00  -0.5773124416E-03   0.7112451058E-03  -0.6156576173E-03   0.0000000000E+00   0.0000000000E+00   0.0000000000E+00  -0.5896563864E+00  -0.8792149949E+00  -0.5115576162E+00   0.3326949721E-01   0.6720488531E-02   0.3075224668E-01
  -0.7856158490E+00   0.2795339085E+01  -0.6278241581E-03  -0.2485989773E-03   0.2097848172E-03  -0.6278241581E-03   0.0000000000E+00   0.0000000000E+00   0.0000000000E+00   0.2258161183E+01   0.2106948523E+01   0.2313550621E+01   0.3584156934E-01   0.7758845774E-02   0.8420072947E-01
  -0.7856536617E+00   0.2795318943E+01   0.1996391497E+00  -0.2864116800E-03   0.1896429224E-03  -0.3608533035E-03   0.0000000000E+00   0.0000000000E+00   0.0000000000E+00   0.2789110931E+01   0.2645116581E+01   0.2841414046E+01   0.4307991177E-01   0.3993307902E-02   0.4956079531E-01
  -0.7878651620E+00   0.3000000000E+01   0.0000000000E+00   0.0000000000E+00   0.0000000000E+00   0.0000000000E+00   0.0000000000E+00   0.0000000000E+00   0.0000000000E+00  -0.1108335238E+02  -0.1112774348E+02  -0.1108333683E+02   0.4051276578E-01  -0.6532700394E-04   0.1092527773E+00
  -0.7878651620E+00   0.3000000000E+01   0.2000000030E+00   0.0000000000E+00   0.0000000000E+00   0.0000000000E+00   0.0000000000E+00   0.0000000000E+00   0.0000000000E+00  -0.9440859874E+01  -0.9478689265E+01  -0.9440855017E+01   0.4637444859E-01  -0.3496050214E-04   0.6257654632E-01
  -0.5875299822E+00   0.2798734078E+01  -0.5385419659E-03  -0.1505261670E-03   0.1779878751E-03  -0.5385419659E-03   0.0000000000E+00   0.0000000000E+00   0.0000000000E+00   0.1926474042E+01   0.1797267030E+01   0.1976039162E+01   0.2134238939E-01   0.5769746300E-02   0.7374756110E-01
  -0.5894951220E+00   0.3000000000E+01   0.0000000000E+00   0.0000000000E+00   0.0000000000E+00   0.0000000000E+00   0.0000000000E+00   0.0000000000E+00   0.0000000000E+00  -0.9596464874E+01  -0.9634902097E+01  -0.9596452115E+01   0.2469879813E-01  -0.1130990328E-03   0.9547627491E-01
  -0.5875663417E+00   0.2798719412E+01   0.1996938399E+00  -0.1868857494E-03   0.1633216762E-03  -0.3061630825E-03   0.0000000000E+00   0.0000000000E+00   0.0000000000E+00   0.2467008347E+01   0.2340795778E+01   0.2511877840E+01   0.2807565679E-01   0.2955554656E-02   0.4277997282E-01
  -0.5894951220E+00   0.3000000000E+01   0.2000000030E+00   0.0000000000E+00   0.0000000000E+00   0.0000000000E+00   0.0000000000E+00   0.0000000000E+00   0.0000000000E+00  -0.8308161574E+01  -0.8341443668E+01  -0.8308153012E+01   0.3076136892E-01  -0.6030422572E-04   0.5412110172E-01
  -0.3903703618E+00   0.2802253528E+01  -0.4625137136E-03  -0.6955183300E-04   0.1535882471E-03  -0.4625137136E-03   0.0000000000E+00   0.0000000000E+00   0.0000000000E+00   0.1601150250E+01   0.1489055041E+01   0.1645314178E+01   0.9662282530E-02   0.5281237441E-02   0.6428806557E-01
  -0.3923090400E+00   0.3000000000E+01   0.0000000000E+00   0.0000000000E+00   0.0000000000E+00   0.0000000000E+00   0.0000000000E+00   0.0000000000E+00   0.0000000000E+00  -0.8484548703E+01  -0.8518599555E+01  -0.8484570978E+01   0.1128883072E-01  -0.5472804265E-04   0.8359830893E-01
  -0.3903996109E+00   0.2802241453E+01   0.1997406656E+00  -0.9880087360E-04   0.1415125019E-03  -0.2593373784E-03   0.0000000000E+00   0.0000000000E+00   0.0000000000E+00   0.2235176810E+01   0.2123240111E+01   0.2273011063E+01   0.1440628966E-01   0.2951276332E-02   0.3684758659E-01
  -0.3923090400E+00   0.3000000000E+01   0.2000000030E+00   0.0000000000E+00   0.0000000000E+00   0.0000000000E+00   0.0000000000E+00   0.0000000000E+00   0.0000000000E+00  -0.7341895790E+01  -0.7371365769E+01  -0.7341917515E+01   0.1641881445E-01  -0.2822830973E-04   0.4675336194E-01
  -0.1899129230E+00   0.2803751554E+01  -0.4034893482E-03   0.6480377859E-06   0.1364642914E-03  -0.4034893482E-03   0.0000000000E+00   0.0000000000E+00   0.0000000000E+00   0.1374825306E+01   0.1274816162E+01   0.1414135626E+01  -0.4311856396E-03   0.3611064509E-02   0.5655251947E-01
  -0.1922578220E+00   0.3000000000E+01   0.0000000000E+00   0.0000000000E+00   0.0000000000E+00   0.0000000000E+00   0.0000000000E+00   0.0000000000E+00   0.0000000000E+00  -0.7638579958E+01  -0.7669159954E+01  -0.7638562214E+01  -0.8919125334E-03  -0.1802983033E-04   0.7336376783E-01
  -0.1899321212E+00   0.2803740589E+01   0.1997769718E+00  -0.1855023507E-04   0.1254990933E-03  -0.2230312352E-03   0.0000000000E+00   0.0000000000E+00   0.0000000000E+00   0.2053755134E+01   0.1952678513E+01   0.2085968486E+01   0.2438760632E-02   0.2063436918E-02   0.3205430513E-01
  -0.1922578220E+00   0.3000000000E+01   0.2000000030E+00   0.0000000000E+00   0.0000000000E+00   0.0000000000E+00   0.0000000000E+00   0.0000000000E+00   0.0000000000E+00  -0.6564828488E+01  -0.6591091525E+01  -0.6564804084E+01   0.2657975846E-02  -0.9630168258E-05   0.4044800573E-01
   0.1407438083E-01   0.2803282829E+01  -0.3816358889E-03   0.6588083020E-04   0.1302687955E-03  -0.3816358889E-03   0.0000000000E+00   0.0000000000E+00   0.0000000000E+00   0.1287546535E+01   0.1192524988E+01   0.1325095422E+01  -0.8694992195E-02  -0.2054479573E-02   0.5312720803E-01
   0.1392890100E-01   0.3000000000E+01   0.0000000000E+00   0.0000000000E+00   0.0000000000E+00   0.0000000000E+00   0.0000000000E+00   0.0000000000E+00   0.0000000000E+00  -0.7284987166E+01  -0.7314101718E+01  -0.7284945351E+01  -0.1236697589E-01   0.4187211013E-04   0.6934043584E-01
   0.1406696666E-01   0.2803272845E+01   0.1997900720E+00   0.5846666269E-04   0.1202845494E-03  -0.2099309843E-03   0.0000000000E+00   0.0000000000E+00   0.0000000000E+00   0.1984473323E+01   0.1887476817E+01   0.2014581008E+01  -0.7933202872E-02  -0.1184298105E-02   0.2999517327E-01
   0.1392890100E-01   0.3000000000E+01   0.2000000030E+00   0.0000000000E+00   0.0000000000E+00   0.0000000000E+00   0.0000000000E+00   0.0000000000E+00   0.0000000000E+00  -0.6278418675E+01  -0.6303509078E+01  -0.6278381947E+01  -0.1078888484E-01   0.2129703508E-04   0.3805379905E-01
  -0.5838985015E+00   0.2597896285E+01  -0.9073812140E-03  -0.3088884638E-03   0.6334246218E-03  -0.9073812140E-03   0.0000000000E+00   0.0000000000E+00   0.0000000000E+00  -0.1151347707E+01  -0.1399602510E+01  -0.1076978823E+01   0.1452278960E-01   0.1027435329E-01   0.4485202241E-01
  -0.5839667526E+00   0.2597873046E+01   0.1994817798E+00  -0.3771395831E-03   0.6101856464E-03  -0.5182231560E-03   0.0000000000E+00   0.0000000000E+00   0.0000000000E+00  -0.5252491808E+00  -0.7766886525E+00  -0.4578205709E+00   0.2089788737E-01   0.5439633267E-02   0.2604392458E-01
  -0.3875506041E+00   0.2604518851E+01  -0.7729685913E-03  -0.1530170558E-03   0.5423613710E-03  -0.7729685913E-03   0.0000000000E+00   0.0000000000E+00   0.0000000000E+00  -0.1099261565E+01  -0.1311822433E+01  -0.1032616333E+01   0.5671303023E-02   0.9670313726E-02   0.3719108886E-01
  -0.3876022374E+00   0.2604503009E+01   0.1995651931E+00  -0.2046504435E-03   0.5265190606E-03  -0.4348098864E-03   0.0000000000E+00   0.0000000000E+00   0.0000000000E+00  -0.4175911927E+00  -0.6372514555E+00  -0.3601575946E+00   0.9223565670E-02   0.5316151412E-02   0.2136690152E-01
  -0.1879355626E+00   0.2607220652E+01  -0.6729017402E-03  -0.2089255918E-04   0.4806524841E-03  -0.6729017402E-03   0.0000000000E+00   0.0000000000E+00   0.0000000000E+00  -0.1064545475E+01  -0.1252619667E+01  -0.1004682704E+01  -0.1147338423E-02   0.6695134167E-02   0.3097976022E-01
  -0.1879663835E+00   0.2607207806E+01   0.1996272207E+00  -0.5171353266E-04   0.4678060832E-03  -0.3727823186E-03   0.0000000000E+00   0.0000000000E+00   0.0000000000E+00  -0.3378921413E+00  -0.5347481678E+00  -0.2884337910E+00   0.7481960348E-03   0.3674467587E-02   0.1767890708E-01
   0.1468668821E-01   0.2606424693E+01  -0.6333588849E-03   0.1004522141E-03   0.4583634403E-03  -0.6333588849E-03   0.0000000000E+00   0.0000000000E+00   0.0000000000E+00  -0.1028760577E+01  -0.1207824339E+01  -0.9723512009E+00  -0.4132385669E-02  -0.1942091993E-02   0.2873662672E-01
   0.1467903896E-01   0.2606414532E+01   0.1996511324E+00   0.9280296236E-04   0.4482021153E-03  -0.3488705784E-03   0.0000000000E+00   0.0000000000E+00   0.0000000000E+00  -0.3035377658E+00  -0.4925213763E+00  -0.2579104022E+00  -0.3860367409E-02  -0.1251022408E-02   0.1634551919E-01
  -0.5791170141E+00   0.2397325846E+01  -0.1150700977E-02  -0.4938381220E-03   0.1298755883E-02  -0.1150700977E-02   0.0000000000E+00   0.0000000000E+00   0.0000000000E+00  -0.1851583912E+00  -0.5203133564E+00  -0.1021307473E+00   0.2147841105E-02   0.1809211511E-01   0.2847552841E-01
  -0.5792030145E+00   0.2397305760E+01   0.1993469882E+00  -0.5798384866E-03   0.1278670320E-02  -0.6530148422E-03   0.0000000000E+00   0.0000000000E+00   0.0000000000E+00   0.1820653061E+00  -0.1612878094E+00   0.2570978527E+00   0.8324244604E-02   0.9311383330E-02   0.1544708131E-01
  -0.3840956403E+00   0.2406873334E+01  -0.9562795290E-03  -0.2619632976E-03   0.1104704430E-02  -0.9562795290E-03   0.0000000000E+00   0.0000000000E+00   0.0000000000E+00  -0.2495595626E+00  -0.5341116720E+00  -0.1780269873E+00  -0.3626131557E-02   0.1712276801E-01   0.2044295259E-01
  -0.3841598205E+00   0.2406865505E+01   0.1994674849E+00  -0.3261434938E-03   0.1096874817E-02  -0.5325180559E-03   0.0000000000E+00   0.0000000000E+00   0.0000000000E+00   0.2220499323E+00  -0.7501407210E-01   0.2829631773E+00  -0.6841097382E-03   0.9201926692E-02   0.1092053771E-01
  -0.1857568579E+00   0.2410693515E+01  -0.8141028612E-03  -0.6450294037E-04   0.9750048060E-03  -0.8141028612E-03   0.0000000000E+00   0.0000000000E+00   0.0000000000E+00  -0.2994122076E+00  -0.5493385868E+00  -0.2374112209E+00  -0.5798712229E-02   0.1060624712E-01   0.1394256171E-01
  -0.1857942241E+00   0.2410690448E+01   0.1995556006E+00  -0.1018691266E-03   0.9719384516E-03  -0.4444024028E-03   0.0000000000E+00   0.0000000000E+00   0.0000000000E+00   0.2486361011E+00  -0.1560712968E-01   0.2986012853E+00  -0.4048422854E-02   0.5695339654E-02   0.7348611249E-02
   0.1565823604E-01   0.2409732428E+01  -0.7604041300E-03   0.1176030414E-03   0.9292078611E-03  -0.7604041300E-03   0.0000000000E+00   0.0000000000E+00   0.0000000000E+00  -0.2978316516E+00  -0.5359601578E+00  -0.2405381983E+00  -0.1637802111E-02  -0.2522188166E-02   0.1210225789E-01
   0.1565050243E-01   0.2409733905E+01   0.1995882449E+00   0.1098694303E-03   0.9306852663E-03  -0.4117581004E-03   0.0000000000E+00   0.0000000000E+00   0.0000000000E+00   0.2593388183E+00   0.5667776072E-02   0.3041594989E+00  -0.9885709692E-03  -0.1643929409E-02   0.6339450335E-02
  -0.5736299687E+00   0.2196951383E+01  -0.1296251473E-02  -0.6959376802E-03   0.2132413440E-02  -0.1296251473E-02   0.0000000000E+00   0.0000000000E+00   0.0000000000E+00  -0.3420601758E+00  -0.7575515663E+00  -0.2626055575E+00  -0.1661658423E-01   0.2734099037E-01   0.1710049671E-01
  -0.5737295988E+00   0.2196941602E+01   0.1992743342E+00  -0.7955677716E-03   0.2122631605E-02  -0.7256687747E-03   0.0000000000E+00   0.0000000000E+00   0.0000000000E+00  -0.5006653692E-01  -0.4760022882E+00   0.2116428787E-01  -0.8720354398E-02   0.1428280088E-01   0.8239839258E-02
  -0.3801970951E+00   0.2209335331E+01  -0.1036887833E-02  -0.3875071300E-03   0.1799821054E-02  -0.1036887833E-02   0.0000000000E+00   0.0000000000E+00   0.0000000000E+00  -0.3927856707E+00  -0.7414571271E+00  -0.3292482806E+00  -0.1793820184E-01   0.2611618396E-01   0.7675438446E-02
  -0.3802716346E+00   0.2209343234E+01   0.1994347315E+00  -0.4620466346E-03   0.1807724141E-02  -0.5652714841E-03   0.0000000000E+00   0.0000000000E+00   0.0000000000E+00   0.3759916326E-01  -0.3271257359E+00   0.8947300242E-01  -0.1434563480E-01   0.1421924076E-01   0.3318464736E-02
  -0.1839460466E+00   0.2215698924E+01  -0.8512154621E-03  -0.1244135954E-03   0.1575194192E-02  -0.8512154621E-03   0.0000000000E+00   0.0000000000E+00   0.0000000000E+00  -0.4422666663E+00  -0.7457238288E+00  -0.3912556559E+00  -0.1254371825E-01   0.1481754305E-01  -0.6658857305E-03
  -0.1839888713E+00   0.2215713428E+01   0.1995496650E+00  -0.1672383265E-03   0.1589698423E-02  -0.4503379625E-03   0.0000000000E+00   0.0000000000E+00   0.0000000000E+00   0.8987130303E-01  -0.2321563830E+00   0.1272127844E+00  -0.1044014989E-01   0.8026324467E-02  -0.1007223284E-02
   0.1678410591E-01   0.2213241659E+01  -0.7835054994E-03   0.1190199098E-03   0.1503548918E-02  -0.7835054994E-03   0.0000000000E+00   0.0000000000E+00   0.0000000000E+00  -0.4321304792E+00  -0.7207842484E+00  -0.3869480224E+00   0.1717573850E-02  -0.3098963168E-02  -0.1716124800E-02
   0.1677686303E-01   0.2213262855E+01   0.1995911019E+00   0.1117770346E-03   0.1524744547E-02  -0.4089010709E-03   0.0000000000E+00   0.0000000000E+00   0.0000000000E+00   0.1153793676E+00  -0.1932566508E+00   0.1463330176E+00   0.2416565806E-02  -0.2046155302E-02  -0.1487195399E-02
  -0.5677913289E+00   0.1996738565E+01  -0.1372534902E-02  -0.9193278916E-03   0.3103624525E-02  -0.1372534902E-02   0.0000000000E+00   0.0000000000E+00   0.0000000000E+00  -0.2325797828E+00  -0.7192264355E+00  -0.1641884316E+00  -0.4352624844E-01   0.3790804334E-01   0.9277966965E-02
  -0.5679051676E+00   0.1996742888E+01   0.1992475953E+00  -0.1033166559E-02   0.3107948396E-02  -0.7524077420E-03   0.0000000000E+00   0.0000000000E+00   0.0000000000E+00  -0.9307934144E-02  -0.5072824406E+00   0.5088638699E-01  -0.3317439557E-01   0.2057030702E-01   0.3305901073E-02
  -0.3766496820E+00   0.2013336524E+01  -0.1033592518E-02  -0.5353140113E-03   0.2589563528E-02  -0.1033592518E-02   0.0000000000E+00   0.0000000000E+00   0.0000000000E+00  -0.2970562473E+00  -0.7000818470E+00  -0.2519845288E+00  -0.3970750112E-01   0.3896852709E-01  -0.9716409242E-03
  -0.3767357799E+00   0.2013365792E+01   0.1994559480E+00  -0.6214119298E-03   0.2618831740E-02  -0.5440549615E-03   0.0000000000E+00   0.0000000000E+00   0.0000000000E+00   0.1110736795E+00  -0.3112983140E+00   0.1432194723E+00  -0.3488586520E-01   0.2191945347E-01  -0.1618027353E-02
  -0.1850941069E+00   0.2026796107E+01  -0.7926380682E-03  -0.2068468575E-03   0.2233036671E-02  -0.7926380682E-03   0.0000000000E+00   0.0000000000E+00   0.0000000000E+00  -0.3606865171E+00  -0.7074293202E+00  -0.3337391372E+00  -0.2288549020E-01   0.1986777770E-01  -0.1057090020E-01
  -0.1851432048E+00   0.2026834296E+01   0.1996038116E+00  -0.2559448060E-03   0.2271226191E-02  -0.3961914357E-03   0.0000000000E+00   0.0000000000E+00   0.0000000000E+00   0.1888700027E+00  -0.1812843567E+00   0.1999538478E+00  -0.2016882648E-01   0.1109127678E-01  -0.6366299058E-02
   0.1737090339E-01   0.2018397071E+01  -0.7108546587E-03   0.1028383943E-03   0.2142640871E-02  -0.7108546587E-03   0.0000000000E+00   0.0000000000E+00   0.0000000000E+00  -0.3635390124E+00  -0.6917536148E+00  -0.3427191656E+00   0.5165052235E-02  -0.4593714178E-02  -0.1111868639E-01
   0.1736503260E-01   0.2018444879E+01   0.1996548712E+00   0.9696760474E-04   0.2190449103E-02  -0.3451318263E-03   0.0000000000E+00   0.0000000000E+00   0.0000000000E+00   0.2042742672E+00  -0.1488078716E+00   0.2085182622E+00   0.5848957281E-02  -0.2986038478E-02  -0.6494530135E-02
  -0.5618566223E+00   0.1796742124E+01  -0.1384043711E-02  -0.1142258265E-02   0.4192393920E-02  -0.1384043711E-02   0.0000000000E+00   0.0000000000E+00   0.0000000000E+00  -0.2206542319E+00  -0.7753967157E+00  -0.1721458666E+00  -0.7919004952E-01   0.4915232489E-01   0.2649843668E-02
  -0.5619873351E+00   0.1796761661E+01   0.1992643386E+00  -0.1272971137E-02   0.4211931223E-02  -0.7356644266E-03   0.0000000000E+00   0.0000000000E+00   0.0000000000E+00  -0.2107272437E-01  -0.5863733534E+00   0.1968620789E-01  -0.6510036171E-01   0.2767035318E-01  -0.7720531657E-03
  -0.3726079262E+00   0.1816815822E+01  -0.9580006465E-03  -0.6822441519E-03   0.3455131929E-02  -0.9580006465E-03   0.0000000000E+00   0.0000000000E+00   0.0000000000E+00  -0.2872785741E+00  -0.7368655753E+00  -0.2689169300E+00  -0.7112180647E-01   0.5215854098E-01  -0.8239705106E-02
  -0.3727084383E+00   0.1816871801E+01   0.1995246804E+00  -0.7827562966E-03   0.3511110705E-02  -0.4753226154E-03   0.0000000000E+00   0.0000000000E+00   0.0000000000E+00   0.1390240228E+00  -0.3332978564E+00   0.1428123932E+00  -0.6401223304E-01   0.3014021114E-01  -0.5626095701E-02
  -0.1831247230E+00   0.1833239788E+01  -0.6652183195E-03  -0.2926309727E-03   0.2950187651E-02  -0.6652183195E-03   0.0000000000E+00   0.0000000000E+00   0.0000000000E+00  -0.3684730279E+00  -0.7465691378E+00  -0.3708986239E+00  -0.3810932855E-01   0.2427272702E-01  -0.1607984626E-01
  -0.1831811485E+00   0.1833310034E+01   0.1997036850E+00  -0.3490565353E-03   0.3020434046E-02  -0.2963179884E-03   0.0000000000E+00   0.0000000000E+00   0.0000000000E+00   0.2329052596E+00  -0.1745363466E+00   0.2114617436E+00  -0.3426986978E-01   0.1394884766E-01  -0.8995029576E-02
   0.1831744210E-01   0.1823169695E+01  -0.5659806757E-03   0.7284009976E-04   0.2822025334E-02  -0.5659806757E-03   0.0000000000E+00   0.0000000000E+00   0.0000000000E+00  -0.3748745298E+00  -0.7303728670E+00  -0.3844657472E+00   0.7878422477E-02  -0.4609612423E-02  -0.1756893607E-01
   0.1831387701E-01   0.1823251956E+01   0.1997659793E+00   0.6927501010E-04   0.2904285869E-02  -0.2340236607E-03   0.0000000000E+00   0.0000000000E+00   0.0000000000E+00   0.2438674239E+00  -0.1428016144E+00   0.2142619477E+00   0.8511608749E-02  -0.3115329773E-02  -0.9660603696E-02
  -0.5559715459E+00   0.1597230468E+01  -0.1343214710E-02  -0.1377624942E-02   0.5380788322E-02  -0.1343214710E-02   0.0000000000E+00   0.0000000000E+00   0.0000000000E+00  -0.2089834758E+00  -0.8270723878E+00  -0.1858977531E+00  -0.1197635476E+00   0.6272401677E-01  -0.3045122686E-02
  -0.5561239465E+00   0.1597263585E+01   0.1993173841E+00  -0.1530025545E-02   0.5413904742E-02  -0.6826188674E-03   0.0000000000E+00   0.0000000000E+00   0.0000000000E+00  -0.8306453235E-02  -0.6350456606E+00   0.7672798188E-02  -0.1005972583E+00   0.3664982502E-01  -0.4225494300E-02
  -0.3682635768E+00   0.1620488788E+01  -0.8085672399E-03  -0.8385227506E-03   0.4367017785E-02  -0.8085672399E-03   0.0000000000E+00   0.0000000000E+00   0.0000000000E+00  -0.2624204735E+00  -0.7497327516E+00  -0.2790954153E+00  -0.1080647955E+00   0.6751453129E-01  -0.1323955991E-01
  -0.3683833690E+00   0.1620577060E+01   0.1996417612E+00  -0.9583150333E-03   0.4455289510E-02  -0.3582418060E-03   0.0000000000E+00   0.0000000000E+00   0.0000000000E+00   0.2100133008E+00  -0.3042008378E+00   0.1765504735E+00  -0.9734464839E-01   0.3999661324E-01  -0.8203499859E-02
  -0.1806968263E+00   0.1639255673E+01  -0.4591444374E-03  -0.3878282806E-03   0.3685983252E-02  -0.4591444374E-03   0.0000000000E+00   0.0000000000E+00   0.0000000000E+00  -0.3502965757E+00  -0.7502380115E+00  -0.3913082568E+00  -0.5351302313E-01   0.2806243231E-01  -0.2293636407E-01
  -0.1807629661E+00   0.1639368038E+01   0.1998543869E+00  -0.4539680595E-03   0.3798348183E-02  -0.1456161116E-03   0.0000000000E+00   0.0000000000E+00   0.0000000000E+00   0.3051892447E+00  -0.1326859999E+00   0.2406545978E+00  -0.4826994911E-01   0.1661611574E-01  -0.1247335052E-01
   0.1931912757E-01   0.1628337590E+01  -0.3456389929E-03   0.3254357451E-04   0.3510919750E-02  -0.3456389929E-03   0.0000000000E+00   0.0000000000E+00   0.0000000000E+00  -0.3665809001E+00  -0.7414556933E+00  -0.4159899861E+00   0.1326403678E-01  -0.4540041044E-02  -0.2091219212E-01
   0.1931942028E-01   0.1628464606E+01   0.1999258923E+00   0.3283628236E-04   0.3637936237E-02  -0.7411073662E-04   0.0000000000E+00   0.0000000000E+00   0.0000000000E+00   0.3207133023E+00  -0.9406776238E-01   0.2465479559E+00   0.1271667018E-01  -0.3353534741E-02  -0.1126455093E-01
  -0.5497086091E+00   0.1398594301E+01  -0.1248187021E-02  -0.1625363115E-02   0.6652630827E-02  -0.1248187021E-02   0.0000000000E+00   0.0000000000E+00   0.0000000000E+00  -0.2178339555E+00  -0.9072208477E+00  -0.2323075536E+00  -0.1769309747E+00   0.7843701331E-01  -0.9636303085E-02
  -0.5498897385E+00   0.1398636016E+01   0.1994080101E+00  -0.1806492488E-02   0.6694345992E-02  -0.5919929168E-03   0.0000000000E+00   0.0000000000E+00   0.0000000000E+00   0.2522678835E-01  -0.6657334975E+00   0.6488707006E-02  -0.1489257373E+00   0.4761100788E-01  -0.8198789451E-02
  -0.3631631144E+00   0.1425247861E+01  -0.5959747164E-03  -0.1000524417E-02   0.5295711434E-02  -0.5959747164E-03   0.0000000000E+00   0.0000000000E+00   0.0000000000E+00  -0.2395735818E+00  -0.7637306480E+00  -0.3015106404E+00  -0.1633159413E+00   0.8289303671E-01  -0.1694940385E-01
  -0.3633097763E+00   0.1425375077E+01   0.1998006253E+00  -0.1147186293E-02   0.5422927417E-02  -0.1993776869E-03   0.0000000000E+00   0.0000000000E+00   0.0000000000E+00   0.2801183110E+00  -0.2750929981E+00   0.1991268288E+00  -0.1452104638E+00   0.5063432817E-01  -0.1066638489E-01
  -0.1793423420E+00   0.1449405025E+01  -0.1935667218E-03  -0.4945670276E-03   0.4399485288E-02  -0.1935667218E-03   0.0000000000E+00   0.0000000000E+00   0.0000000000E+00  -0.3352959579E+00  -0.7476539904E+00  -0.4207473136E+00  -0.7905283317E-01   0.2993566026E-01  -0.1688287487E-01
  -0.1794215628E+00   0.1449573333E+01   0.2000434769E+00  -0.5737877583E-03   0.4567793365E-02   0.4347394962E-04   0.0000000000E+00   0.0000000000E+00   0.0000000000E+00   0.4160190863E+00  -0.4690010367E-01   0.3004619544E+00  -0.7010934316E-01   0.1841187554E-01  -0.9136471323E-02
   0.2019505013E-01   0.1435159059E+01  -0.7082406765E-04  -0.2546087432E-04   0.4180758825E-02  -0.7082406765E-04   0.0000000000E+00   0.0000000000E+00   0.0000000000E+00  -0.3586356640E+00  -0.7400170556E+00  -0.4506690778E+00   0.1410497223E-01  -0.3159829098E-02  -0.1882918371E-01
   0.2020315107E-01   0.1435345621E+01   0.2001217894E+00  -0.1735992599E-04   0.4367320942E-02   0.1217864016E-03   0.0000000000E+00   0.0000000000E+00   0.0000000000E+00   0.3796399531E+00  -0.5551710958E-01   0.2555357408E+00   0.1303844120E-01  -0.2913011030E-02  -0.9993131579E-02
  -0.5416706675E+00   0.1201011245E+01  -0.1060077975E-02  -0.1866626531E-02   0.7988045490E-02  -0.1060077975E-02   0.0000000000E+00   0.0000000000E+00   0.0000000000E+00  -0.2531167281E+00  -0.1000109638E+01  -0.3142380507E+00  -0.2311803592E+00   0.1045231974E+00  -0.3612313133E-01
  -0.5418911121E+00   0.1201052134E+01   0.1995595879E+00  -0.2087071114E-02   0.8028933686E-02  -0.4404151374E-03   0.0000000000E+00   0.0000000000E+00   0.0000000000E+00   0.8002624791E-01  -0.6655819183E+00   0.1505814945E-01  -0.1956598071E+00   0.6576461325E-01  -0.2337657630E-01
  -0.3560274750E+00   0.1232688842E+01  -0.2951761137E-03  -0.1130929960E-02   0.6209911971E-02  -0.2951761137E-03   0.0000000000E+00   0.0000000000E+00   0.0000000000E+00  -0.2460663163E+00  -0.8038421205E+00  -0.3667618025E+00  -0.2194258138E+00   0.8460722347E-01  -0.2514220338E-01
  -0.3562118638E+00   0.1232863510E+01   0.2000169759E+00  -0.1315318775E-02   0.6384579508E-02   0.1697288089E-04   0.0000000000E+00   0.0000000000E+00   0.0000000000E+00   0.4065691649E+00  -0.1906018755E+00   0.2617061499E+00  -0.1939017355E+00   0.5395520615E-01  -0.1529166092E-01
  -0.1701803047E+00   0.1249667296E+01   0.1069817872E-03  -0.5568997067E-03   0.5099425642E-02   0.1069817872E-03   0.0000000000E+00   0.0000000000E+00   0.0000000000E+00  -0.3107300307E+00  -0.7275737860E+00  -0.4405837964E+00  -0.1027469468E+00   0.2577078559E-01  -0.7721460712E-02
  -0.1702787288E+00   0.1249917915E+01   0.2002595198E+00  -0.6553237674E-03   0.5350044555E-02   0.2595168191E-03   0.0000000000E+00   0.0000000000E+00   0.0000000000E+00   0.4237931678E+00  -0.6202281570E-01   0.2542663341E+00  -0.9069943640E-01   0.1712370145E-01  -0.4633993686E-02
   0.2064292307E-01   0.1246232848E+01   0.2371827226E-03  -0.6621193324E-04   0.4798628023E-02   0.2371827226E-03   0.0000000000E+00   0.0000000000E+00   0.0000000000E+00  -0.2742977090E+00  -0.6525748040E+00  -0.4108311564E+00   0.2230496652E-01   0.9012798570E-03  -0.4876887818E-02
   0.2065689848E-01   0.1246501767E+01   0.2003383923E+00  -0.5223651984E-04   0.5067547064E-02   0.3383892875E-03   0.0000000000E+00   0.0000000000E+00   0.0000000000E+00   0.4539388652E+00   0.1441502995E-02   0.2756881959E+00   0.1628412767E-01  -0.1197807408E-02  -0.3277180372E-02
  -0.5288772699E+00   0.1004525301E+01  -0.7237004733E-03  -0.2172719947E-02   0.9321328802E-02  -0.7237004733E-03   0.0000000000E+00   0.0000000000E+00   0.0000000000E+00  -0.1816088585E+00  -0.1053387751E+01  -0.3512563607E+00  -0.3228771855E+00   0.1377047910E+00  -0.2632079388E-01
  -0.5291415934E+00   0.1004553599E+01   0.1998036358E+00  -0.2437043450E-02   0.9349626706E-02  -0.1963671624E-03   0.0000000000E+00   0.0000000000E+00   0.0000000000E+00   0.3828098691E+00  -0.4480800408E+00   0.2284162553E+00  -0.2624002964E+00   0.8864361461E-01  -0.1669112754E-01
  -0.3439640695E+00   0.1044641366E+01   0.4585401987E-04  -0.1285045534E-02   0.7051096330E-02   0.4585401987E-04   0.0000000000E+00   0.0000000000E+00   0.0000000000E+00  -0.8040063515E-01  -0.6848725273E+00  -0.2752487033E+00  -0.2880804876E+00   0.5966218207E-01   0.8641184908E-02
  -0.3441979027E+00   0.1044875164E+01   0.2002574834E+00  -0.1518878670E-02   0.7284893663E-02   0.2574803843E-03   0.0000000000E+00   0.0000000000E+00   0.0000000000E+00   0.4907312873E+00  -0.1471198747E+00   0.2756564319E+00  -0.2364708862E+00   0.4299098992E-01   0.2016555747E-02
  -0.1646075560E+00   0.1067890754E+01   0.4147525138E-03  -0.6611060333E-03   0.5702124084E-02   0.4147525138E-03   0.0000000000E+00   0.0000000000E+00   0.0000000000E+00  -0.2623207142E+00  -0.6734497573E+00  -0.4334193519E+00  -0.1285084556E+00   0.2156192488E-01   0.1936163191E-01
  -0.1647338614E+00   0.1068245962E+01   0.2004790200E+00  -0.7874113833E-03   0.6057332499E-02   0.4790170298E-03   0.0000000000E+00   0.0000000000E+00   0.0000000000E+00   0.4924066894E+00  -0.1004107581E-01   0.2700369901E+00  -0.9822009948E-01   0.1620114905E-01   0.6653843721E-02
   0.1382412889E-01   0.1072425445E+01   0.5038380108E-03  -0.1875521105E-03   0.5315144777E-02   0.5038380108E-03   0.0000000000E+00   0.0000000000E+00   0.0000000000E+00  -0.3046416771E+00  -0.6589686410E+00  -0.4643987937E+00   0.3803050325E-01  -0.1142964764E-01   0.2474612910E-01
   0.1384837475E-01   0.1072805989E+01   0.2005334979E+00  -0.1633062471E-03   0.5695688948E-02   0.5334948917E-03   0.0000000000E+00   0.0000000000E+00   0.0000000000E+00   0.4826016189E+00   0.1673638033E-01   0.2607694751E+00   0.3652113262E-01  -0.9200929390E-02   0.9653685015E-02
  -0.5028446037E+00   0.8105663195E+00  -0.6083890626E-03  -0.2329202659E-02   0.1053191555E-01  -0.6083890626E-03   0.0000000000E+00   0.0000000000E+00   0.0000000000E+00  -0.1429025720E+00  -0.9877768585E+00  -0.3028667427E+00  -0.4072144049E+00   0.1258442745E+00   0.3966288312E-01
  -0.5032133142E+00   0.8105574009E+00   0.1999130350E+00  -0.2697913244E-02   0.1052299695E-01  -0.8696795508E-04   0.0000000000E+00   0.0000000000E+00   0.0000000000E+00   0.6400418939E+00  -0.1876893537E+00   0.4851709865E+00  -0.3486335024E+00   0.8854339281E-01   0.3026938566E-01
  -0.3250314909E+00   0.8710728731E+00   0.1852389950E-03  -0.1374931942E-02   0.7747992060E-02   0.1852389950E-03   0.0000000000E+00   0.0000000000E+00   0.0000000000E+00  -0.3914761240E+00  -0.9985359541E+00  -0.5923550143E+00  -0.3267028322E+00   0.4236046779E-01   0.4253957075E-01
  -0.3253749912E+00   0.8713694827E+00   0.2003836410E+00  -0.1718432233E-02   0.8044601656E-02   0.3836380126E-03   0.0000000000E+00   0.0000000000E+00   0.0000000000E+00   0.4843186065E+00  -0.1725705141E+00   0.2506387904E+00  -0.2682782141E+00   0.3821778055E-01   0.2291987265E-01
  -0.1582687137E+00   0.9056740022E+00   0.6314505817E-03  -0.7736327313E-03   0.6188116215E-02   0.6314505817E-03   0.0000000000E+00   0.0000000000E+00   0.0000000000E+00  -0.5611755598E+00  -0.9461756757E+00  -0.7429513416E+00  -0.1515336096E+00   0.2825770240E-01   0.3930134925E-01
  -0.1584791185E+00   0.9061516283E+00   0.2006450671E+00  -0.9840374977E-03   0.6665742317E-02   0.6450641107E-03   0.0000000000E+00   0.0000000000E+00   0.0000000000E+00   0.6437788999E+00   0.1363038056E+00   0.3912477112E+00  -0.1128153910E+00   0.2186456810E-01   0.1649555600E-01
   0.4995394465E-02   0.9144146743E+00   0.7566597032E-03  -0.3305625346E-03   0.5734652251E-02   0.7566597032E-03   0.0000000000E+00   0.0000000000E+00   0.0000000000E+00  -0.4425955887E+00  -0.7836721612E+00  -0.6303888575E+00   0.4361513618E-01  -0.2145795444E-01   0.3558145261E-01
   0.4964882688E-02   0.9149411835E+00   0.2007157890E+00  -0.3610743118E-03   0.6261161468E-02   0.7157860445E-03   0.0000000000E+00   0.0000000000E+00   0.0000000000E+00   0.6345107188E+00   0.1511907383E+00   0.3677170398E+00   0.4580484545E-01  -0.1526299000E-01   0.1306219268E-01
  -0.1354779989E+00   0.7443893676E+00   0.1024512650E-02  -0.9620128706E-03   0.6550980584E-02   0.1024512650E-02   0.0000000000E+00   0.0000000000E+00   0.0000000000E+00   0.7800728222E+00   0.3461576881E+00   0.4846629145E+00  -0.1368504524E+00   0.6152383625E-01   0.5065186344E-01
  -0.4679013908E-03   0.7561526314E+00   0.1160713754E-02  -0.4679013908E-03   0.6152631439E-02   0.1160713754E-02   0.0000000000E+00   0.0000000000E+00   0.0000000000E+00   0.5975601890E+00   0.2044833780E+00   0.2969499936E+00   0.4689013781E-01  -0.1462317981E-01   0.3951413739E-01
  -0.1356432329E+00   0.7450325146E+00   0.2008763673E+00  -0.1127246875E-02   0.7194127649E-02   0.8763643391E-03   0.0000000000E+00   0.0000000000E+00   0.0000000000E+00   0.4503373509E+00  -0.1042170880E+00   0.1051437784E+00  -0.1166520223E+00   0.4437555997E-01   0.2134737977E-01
  -0.5111326764E-03   0.7568368683E+00   0.2009592075E+00  -0.5111326764E-03   0.6836868268E-02   0.9592044630E-03   0.0000000000E+00   0.0000000000E+00   0.0000000000E+00   0.4447939079E+00  -0.8066170031E-01   0.8597753945E-01   0.3658104597E-01  -0.9370784436E-02   0.1101312362E-01
  -0.2715488209E+00   0.7076623255E+00   0.4935770557E-03  -0.1599682935E-02   0.7928472511E-02   0.4935770557E-03   0.0000000000E+00   0.0000000000E+00   0.0000000000E+00   0.7450090540E+00   0.1267014936E+00   0.4683572940E+00  -0.3011728778E+00   0.1243221187E+00   0.6976330960E-01
  -0.2717797637E+00   0.7081295237E+00   0.2005671780E+00  -0.1830625738E-02   0.8395670725E-02   0.5671749623E-03   0.0000000000E+00   0.0000000000E+00   0.0000000000E+00   0.3830834630E+00  -0.2958081422E+00   0.8719978780E-01  -0.2648088103E+00   0.9092610296E-01   0.4122496785E-01
  -0.4065946481E+00   0.6422095772E+00  -0.4700085794E-03  -0.2572103142E-02   0.1033477718E-01  -0.4700085794E-03   0.0000000000E+00   0.0000000000E+00   0.0000000000E+00   0.1387058142E+01   0.4793715256E+00   0.1158850777E+01  -0.3551029887E+00   0.2259359038E+00   0.1896941708E+00
  -0.4067562165E+00   0.6424010053E+00   0.1999966921E+00  -0.2733671511E-02   0.1052620533E-01  -0.3310938820E-05   0.0000000000E+00   0.0000000000E+00   0.0000000000E+00   0.2110830444E+00  -0.6981013695E+00   0.2019588981E-02  -0.3505738552E+00   0.1505305485E+00   0.1219722690E+00
   0.6571394935E+00  -0.6281350049E+00  -0.4456475198E-03   0.2351535467E-02   0.3638132507E-01  -0.4456475198E-03   0.0000000000E+00   0.0000000000E+00   0.0000000000E+00  -0.1075713532E+00  -0.1214875972E+01  -0.8178227480E-01  -0.3147656986E+00  -0.6459931567E-01  -0.6365952510E-01
   0.7786419863E+00  -0.3985724164E+00  -0.2386614836E-02   0.4520880276E-02   0.3199109257E-01  -0.2386614836E-02   0.0000000000E+00   0.0000000000E+00   0.0000000000E+00  -0.2115785825E+00  -0.1432598225E+01   0.6531695189E-01  -0.1014163299E+00   0.2146341926E+00  -0.2310424090E+00
   0.6570932948E+00  -0.3370206622E+00  -0.3925915931E-02   0.4459806791E-02   0.3253245682E-01  -0.3925915931E-02   0.0000000000E+00   0.0000000000E+00   0.0000000000E+00  -0.2008953184E+01  -0.3419328398E+01  -0.1508108959E+01  -0.1726557655E+00   0.4191903275E-01  -0.3731120933E+00
   0.5303826548E+00  -0.4958764247E+00  -0.1093333281E-02   0.2551755755E-02   0.3694111826E-01  -0.1093333281E-02   0.0000000000E+00   0.0000000000E+00   0.0000000000E+00   0.1205932361E+00  -0.1087518313E+01   0.1754527693E+00  -0.3502036049E+00  -0.3192460466E+00  -0.3880046055E+00
   0.6573744049E+00  -0.6273633271E+00   0.2007104861E+00   0.2586446944E-02   0.3715300289E-01   0.7104830823E-03   0.0000000000E+00   0.0000000000E+00   0.0000000000E+00   0.9941201756E-01  -0.9940599270E+00   0.1315286705E+00  -0.3339510127E+00  -0.5362799613E-01  -0.5354751596E-01
   0.7783390286E+00  -0.3978212327E+00   0.1993852384E+00   0.4217922639E-02   0.3274227628E-01  -0.6147645836E-03   0.0000000000E+00   0.0000000000E+00   0.0000000000E+00  -0.1576189969E+00  -0.1435207926E+01   0.9143234770E-01  -0.2055323804E+00   0.1199170965E+00  -0.1537473907E+00
   0.6565322369E+00  -0.3364016819E+00   0.1984628473E+00   0.3898748911E-02   0.3315143707E-01  -0.1537155677E-02   0.0000000000E+00   0.0000000000E+00   0.0000000000E+00  -0.1249442802E+01  -0.2750585533E+01  -0.8140809094E+00  -0.2245807667E+00   0.1549661813E-01  -0.2340713663E+00
   0.5302301297E+00  -0.4953987102E+00   0.2002245152E+00   0.2399230707E-02   0.3741883279E-01   0.2245121763E-03   0.0000000000E+00   0.0000000000E+00   0.0000000000E+00  -0.2652268162E+00  -0.1560907721E+01  -0.2503697495E+00  -0.3751416862E+00  -0.1952840205E+00  -0.2378315118E+00
   0.8509389671E+00  -0.1844266795E+00  -0.3686384136E-02   0.6605557060E-02   0.2819500945E-01  -0.3686384136E-02   0.0000000000E+00   0.0000000000E+00   0.0000000000E+00  -0.2933141142E+00  -0.1631216608E+01   0.1178626688E+00   0.6984358832E-02   0.2159138328E+00  -0.1183415842E+00
   0.7322985974E+00  -0.1592843059E+00  -0.5237648093E-02   0.6192609432E-02   0.2851899206E-01  -0.5237648093E-02   0.0000000000E+00   0.0000000000E+00   0.0000000000E+00  -0.1367543656E+01  -0.2936617529E+01  -0.7470951914E+00  -0.2684408477E-01   0.2221317218E+00  -0.1450808219E+00
   0.8501472865E+00  -0.1838586577E+00   0.1984709858E+00   0.5813876452E-02   0.2876303126E-01  -0.1529017171E-02   0.0000000000E+00   0.0000000000E+00   0.0000000000E+00  -0.1354655903E+00  -0.1625417957E+01   0.2009625131E+00  -0.6176555933E-01   0.1301585910E+00  -0.8401643406E-01
   0.7313120803E+00  -0.1587756739E+00   0.1975560865E+00   0.5206092325E-02   0.2902762414E-01  -0.2443916493E-02   0.0000000000E+00   0.0000000000E+00   0.0000000000E+00  -0.1826039324E+01  -0.3569395378E+01  -0.1303087060E+01  -0.8108776747E-01   0.1312390500E+00  -0.9960927120E-01
   0.8791079547E+00   0.2310218795E-01  -0.4278505914E-02   0.7454636699E-02   0.2480059895E-01  -0.4278505914E-02   0.0000000000E+00   0.0000000000E+00   0.0000000000E+00  -0.1712493130E+00  -0.1516110323E+01   0.2963000915E+00  -0.1771866110E-01   0.1592274244E+00  -0.1556019309E-01
   0.7568887000E+00   0.2489579181E-01  -0.5688499146E-02   0.6888700031E-02   0.2489579181E-01  -0.5688499146E-02   0.0000000000E+00   0.0000000000E+00   0.0000000000E+00  -0.1122837253E+01  -0.2683867516E+01  -0.4657008467E+00   0.7118732240E-02   0.1918182604E+00  -0.2533519968E-01
   0.8781663369E+00   0.2336233558E-01   0.1980000816E+00   0.6513018886E-02   0.2506074658E-01  -0.1999921432E-02   0.0000000000E+00   0.0000000000E+00   0.0000000000E+00  -0.2342720283E+00  -0.1791749666E+01   0.1303067456E+00  -0.1987343862E-01   0.9992593000E-01  -0.1161720790E-01
   0.7557555377E+00   0.2512708457E-01   0.1971751257E+00   0.5755537727E-02   0.2512708457E-01  -0.2824877268E-02   0.0000000000E+00   0.0000000000E+00   0.0000000000E+00  -0.1406238361E+01  -0.3187968151E+01  -0.8647659672E+00   0.1604980411E-01   0.1214291306E+00  -0.1461318191E-01
   0.9889501828E+00  -0.1842305442E+00  -0.2413745993E-02   0.7234920778E-02   0.2742610082E-01  -0.2413745993E-02   0.0000000000E+00   0.0000000000E+00   0.0000000000E+00  -0.5330162742E+00  -0.1707965774E+01  -0.2966541571E+00   0.7091059600E-01   0.8187066515E-01  -0.1093889091E+00
   0.1015223117E+01   0.2375227255E-01  -0.3146770995E-02   0.8046237151E-02   0.2458373355E-01  -0.3146770995E-02   0.0000000000E+00   0.0000000000E+00   0.0000000000E+00  -0.4514959751E+00  -0.1631541968E+01  -0.1286265976E+00  -0.1270703600E-01   0.7900558098E-01  -0.3207288705E-01
   0.9882976014E+00  -0.1837444569E+00   0.1992286983E+00   0.6582339380E-02   0.2791218805E-01  -0.7713047307E-03   0.0000000000E+00   0.0000000000E+00   0.0000000000E+00   0.2435584525E+00  -0.1049296659E+01   0.4184067280E+00   0.7260729465E-02   0.4980409334E-01  -0.7604245228E-01
   0.1014477246E+01   0.2399354127E-01   0.1986745687E+00   0.7300365866E-02   0.2482500227E-01  -0.1325434316E-02   0.0000000000E+00   0.0000000000E+00   0.0000000000E+00  -0.1984767349E+00  -0.1552861247E+01   0.3646865681E-01  -0.1513935479E-01   0.4766521033E-01  -0.2236742717E-01
   0.1144781200E+01  -0.1817937580E+00  -0.1868709231E-02   0.7997359776E-02   0.2699660396E-01  -0.1868709231E-02   0.0000000000E+00   0.0000000000E+00   0.0000000000E+00  -0.5757999806E+00  -0.1706546834E+01  -0.4314934451E+00   0.1157787498E+00  -0.2736058968E-01  -0.6264516649E-01
   0.1161493027E+01   0.2428316331E-01  -0.2405616871E-02   0.8668027051E-02   0.2448789831E-01  -0.2405616871E-02   0.0000000000E+00   0.0000000000E+00   0.0000000000E+00  -0.4933647488E+00  -0.1571340680E+01  -0.2730875009E+00   0.2181299680E-02   0.2259709243E-02  -0.5651058429E-02
   0.1144259112E+01  -0.1813792318E+00   0.1995433141E+00   0.7475271758E-02   0.2741113017E-01  -0.4566889347E-03   0.0000000000E+00   0.0000000000E+00   0.0000000000E+00   0.6301059136E-01  -0.1165332569E+01   0.1531765149E+00   0.7593823712E-01  -0.2089058967E-01  -0.4358579364E-01
   0.1160915210E+01   0.2452041929E-01   0.1991069930E+00   0.8090210081E-02   0.2472515429E-01  -0.8930100396E-03   0.0000000000E+00   0.0000000000E+00   0.0000000000E+00   0.3433515099E-01  -0.1172043246E+01   0.1867928624E+00   0.5258473720E-02  -0.5246440250E-02  -0.5498039883E-02
   0.1311327614E+01  -0.1788933308E+00  -0.1566522801E-02   0.8823434369E-02   0.2671244425E-01  -0.1566522801E-02   0.0000000000E+00   0.0000000000E+00   0.0000000000E+00  -0.4455055991E+00  -0.1527665041E+01  -0.3522886945E+00   0.1003860266E+00  -0.3172825253E-01  -0.5039086294E-01
   0.1324202301E+01   0.2610303502E-01  -0.2059321714E-02   0.9369611061E-02   0.2437392302E-01  -0.2059321714E-02   0.0000000000E+00   0.0000000000E+00   0.0000000000E+00  -0.4129534716E+00  -0.1450575899E+01  -0.2546325177E+00  -0.7293412586E-02  -0.3595345177E-01  -0.5720750918E-02
   0.1310916945E+01  -0.1785279145E+00   0.1996958020E+00   0.8412765162E-02   0.2707786053E-01  -0.3042009768E-03   0.0000000000E+00   0.0000000000E+00   0.0000000000E+00   0.9963937863E-01  -0.1057090067E+01   0.1510679066E+00   0.7326742617E-01  -0.2622645063E-01  -0.3371931744E-01
   0.1323761729E+01   0.2633977869E-01   0.1992892687E+00   0.8929039140E-02   0.2461066669E-01  -0.7107343045E-03   0.0000000000E+00   0.0000000000E+00   0.0000000000E+00  -0.7224378601E-01  -0.1201924990E+01   0.3653359030E-01  -0.4079695589E-02  -0.3171291782E-01  -0.4934885813E-02
   0.1483396050E+01  -0.1765879610E+00  -0.1405745048E-02   0.9680739823E-02   0.2650455400E-01  -0.1405745048E-02   0.0000000000E+00   0.0000000000E+00   0.0000000000E+00  -0.2978210035E+00  -0.1353692814E+01  -0.2426854899E+00   0.8600166837E-01  -0.3638290479E-01  -0.4050379466E-01
   0.1493508107E+01   0.2741534143E-01  -0.1859754087E-02   0.1011980676E-01   0.2427707843E-01  -0.1859754087E-02   0.0000000000E+00   0.0000000000E+00   0.0000000000E+00  -0.2664259630E+00  -0.1283006374E+01  -0.1558187336E+00  -0.5870013106E-02  -0.2994394533E-01  -0.6360698321E-02
   0.1483071389E+01  -0.1762583556E+00   0.1997553409E+00   0.9356079237E-02   0.2683415935E-01  -0.2446621419E-03   0.0000000000E+00   0.0000000000E+00   0.0000000000E+00   0.3892911264E-01  -0.1070813229E+01   0.6387434961E-01   0.6750937154E-01  -0.2994371149E-01  -0.2598033364E-01
   0.1493169275E+01   0.2765408299E-01   0.1993735502E+00   0.9780975198E-02   0.2451581999E-01  -0.6264527713E-03   0.0000000000E+00   0.0000000000E+00   0.0000000000E+00  -0.8274357739E-01  -0.1164043992E+01  -0.6891054214E-02  -0.2706356099E-02  -0.2979581156E-01  -0.4744033636E-02
   0.1658291122E+01  -0.1748925291E+00  -0.1278635263E-02   0.1055743239E-01   0.2634118591E-01  -0.1278635263E-02   0.0000000000E+00   0.0000000000E+00   0.0000000000E+00  -0.1357140724E+00  -0.1164281797E+01  -0.1158485228E+00   0.7063562359E-01  -0.2779751922E-01  -0.3406000739E-01
   0.1665359044E+01   0.2809387969E-01  -0.1705062727E-02   0.1090314351E-01   0.2421724569E-01  -0.1705062727E-02   0.0000000000E+00   0.0000000000E+00   0.0000000000E+00  -0.1322547293E+00  -0.1129702933E+01  -0.6505408994E-01  -0.5451512270E-02  -0.2174989573E-01  -0.8206003370E-02
   0.1658027780E+01  -0.1745902067E+00   0.1997861134E+00   0.1029409013E-01   0.2664350826E-01  -0.2138895897E-03   0.0000000000E+00   0.0000000000E+00   0.0000000000E+00   0.3299645599E-01  -0.1032509079E+01   0.3266285734E-01   0.5721819143E-01  -0.2461563365E-01  -0.2092344488E-01
   0.1665091381E+01   0.2833368651E-01   0.1994234045E+00   0.1063548088E-01   0.2445705251E-01  -0.5765984931E-03   0.0000000000E+00   0.0000000000E+00   0.0000000000E+00  -0.8944353923E-01  -0.1131213298E+01  -0.4573699936E-01  -0.2655669296E-02  -0.2461665382E-01  -0.5300409096E-02
   0.1834522764E+01  -0.1729873731E+00  -0.1132520525E-02   0.1144723427E-01   0.2617631687E-01  -0.1132520525E-02   0.0000000000E+00   0.0000000000E+00   0.0000000000E+00  -0.9716205475E-01  -0.1091744550E+01  -0.1150400370E+00   0.4551589043E-01  -0.8346825117E-03  -0.2670528191E-01
   0.1837157649E+01   0.3093028337E-01  -0.1522535998E-02   0.1170364880E-01   0.2415528437E-01  -0.1522535998E-02   0.0000000000E+00   0.0000000000E+00   0.0000000000E+00  -0.1295361879E+00  -0.1096634903E+01  -0.1079179492E+00  -0.5750280976E-02   0.1026892874E-01  -0.7988478648E-02
   0.1834300513E+01  -0.1727058783E+00   0.1998228295E+00   0.1122498336E-01   0.2645781174E-01  -0.1771735252E-03   0.0000000000E+00   0.0000000000E+00   0.0000000000E+00  -0.2048319798E-01  -0.1039541927E+01  -0.5238077908E-01   0.3760241485E-01  -0.8451479040E-02  -0.1572017763E-01
   0.1836938429E+01   0.3117055583E-01   0.1994841023E+00   0.1148442882E-01   0.2439555683E-01  -0.5159006897E-03   0.0000000000E+00   0.0000000000E+00   0.0000000000E+00  -0.1143252929E+00  -0.1111527409E+01  -0.1096304108E+00  -0.2782521382E-02  -0.5675079022E-02  -0.4744600165E-02
   0.2012341251E+01  -0.1727322770E+00  -0.8243534460E-03   0.1234125098E-01   0.2595666201E-01  -0.8243534460E-03   0.0000000000E+00   0.0000000000E+00   0.0000000000E+00   0.8408988155E-01  -0.8468122317E+00   0.3672825486E-02   0.2158392901E-01   0.2701031531E-01  -0.1444742631E-01
   0.2012528479E+01   0.3131436682E-01  -0.1170480735E-02   0.1252847943E-01   0.2414174782E-01  -0.1170480735E-02   0.0000000000E+00   0.0000000000E+00   0.0000000000E+00   0.6753694660E-01  -0.8328922528E+00   0.1966191644E-01  -0.6223241120E-02   0.3962123039E-01  -0.7108815434E-02
   0.2012149304E+01  -0.1724531670E+00   0.1999443936E+00   0.1214930417E-01   0.2623577202E-01  -0.5560935391E-04   0.0000000000E+00   0.0000000000E+00   0.0000000000E+00   0.1847052427E+00  -0.7674080026E+00   0.9380489745E-01   0.1835374917E-01   0.8683553564E-02  -0.7190613032E-02
   0.2012346127E+01   0.3155587804E-01   0.1996329080E+00   0.1234612743E-01   0.2438325904E-01  -0.3670950100E-03   0.0000000000E+00   0.0000000000E+00   0.0000000000E+00   0.1599436995E+00  -0.7669532663E+00   0.9903237707E-01  -0.3055214795E-02   0.1211454903E-01  -0.3791051386E-02
   0.9409166396E+00  -0.3951259003E+00  -0.1310049570E-02   0.5395454604E-02   0.3037398566E-01  -0.1310049570E-02   0.0000000000E+00   0.0000000000E+00   0.0000000000E+00  -0.3196693402E-02  -0.1222012000E+01   0.4780142633E-01   0.1306022202E-01   0.8440471806E-01  -0.6972018060E-01
   0.9406289660E+00  -0.3944945348E+00   0.2000108580E+00   0.5107781042E-02   0.3100535124E-01   0.1085496254E-04   0.0000000000E+00   0.0000000000E+00   0.0000000000E+00   0.4733928902E+00  -0.7639820170E+00   0.5179916831E+00  -0.8752743208E-01   0.4897801958E-01  -0.5255610649E-01
   0.1113684795E+01  -0.3884829988E+00  -0.9951089622E-03   0.6514214592E-02   0.2959345722E-01  -0.9951089622E-03   0.0000000000E+00   0.0000000000E+00   0.0000000000E+00  -0.1084428874E+00  -0.1346806654E+01  -0.1367385260E+00   0.1220201606E+00  -0.1859275089E-01  -0.2138362309E-01
   0.1113427683E+01  -0.3879554248E+00   0.2001840240E+00   0.6257102665E-02   0.3012103122E-01   0.1840209655E-03   0.0000000000E+00   0.0000000000E+00   0.0000000000E+00   0.2989763841E+00  -0.9782001343E+00   0.2509002289E+00   0.4991799312E-01  -0.1283674792E-01  -0.1943734489E-01
   0.1290090127E+01  -0.3828352007E+00  -0.8608604939E-03   0.7620616804E-02   0.2909565825E-01  -0.8608604939E-03   0.0000000000E+00   0.0000000000E+00   0.0000000000E+00  -0.9776207447E-01  -0.1262977361E+01  -0.1313883212E+00   0.1186908796E+00  -0.2274376317E-01  -0.1384300048E-01
   0.1289872557E+01  -0.3823835495E+00   0.2002344450E+00   0.7403046843E-02   0.2954730947E-01   0.2344420178E-03   0.0000000000E+00   0.0000000000E+00   0.0000000000E+00   0.3005338410E+00  -0.8968458737E+00   0.2501527310E+00   0.6322205765E-01  -0.1665370558E-01  -0.1192439579E-01
   0.1468595374E+01  -0.3789511382E+00  -0.8121072055E-03   0.8688794063E-02   0.2875571882E-01  -0.8121072055E-03   0.0000000000E+00   0.0000000000E+00   0.0000000000E+00  -0.5338848529E-01  -0.1176039615E+01  -0.9429742771E-01   0.1198560658E+00  -0.2899466412E-01  -0.1181316540E-01
   0.1468414298E+01  -0.3785590324E+00   0.2002262471E+00   0.8507717695E-02   0.2914782456E-01   0.2262440800E-03   0.0000000000E+00   0.0000000000E+00   0.0000000000E+00   0.1996799676E+00  -0.9490992162E+00   0.1451923157E+00   0.7723145220E-01  -0.2058407926E-01  -0.8666689477E-02
   0.1648626490E+01  -0.3764321987E+00  -0.7725424919E-03   0.9724060138E-02   0.2848155429E-01  -0.7725424919E-03   0.0000000000E+00   0.0000000000E+00   0.0000000000E+00   0.2109540939E-01  -0.1058117497E+01  -0.2912772941E-01   0.1101312811E+00  -0.2281140930E-01  -0.1231725520E-01
   0.1648473944E+01  -0.3760864728E+00   0.2002043163E+00   0.9571514078E-02   0.2882728025E-01   0.2043133458E-03   0.0000000000E+00   0.0000000000E+00   0.0000000000E+00   0.1460352317E+00  -0.9517959395E+00   0.8651656049E-01   0.7536276902E-01  -0.1677945850E-01  -0.7572808501E-02
   0.1829753785E+01  -0.3746442812E+00  -0.6981288452E-03   0.1073780510E-01   0.2820634682E-01  -0.6981288452E-03   0.0000000000E+00   0.0000000000E+00   0.0000000000E+00   0.3571772362E-01  -0.1001659993E+01  -0.3452612603E-01   0.8113369468E-01  -0.1809962929E-02  -0.1088387436E-01
   0.1829620887E+01  -0.3743352071E+00   0.2001967198E+00   0.1060490677E-01   0.2851542091E-01   0.1967168384E-03   0.0000000000E+00   0.0000000000E+00   0.0000000000E+00   0.7895406255E-01  -0.9709217711E+00   0.2218485707E-02   0.5470029139E-01  -0.4242977100E-02  -0.5817052439E-02
   0.2011734831E+01  -0.3743287776E+00  -0.4877604398E-03   0.1173483050E-01   0.2779944240E-01  -0.4877604398E-03   0.0000000000E+00   0.0000000000E+00   0.0000000000E+00   0.1554184705E+00  -0.8253934257E+00   0.3903133471E-01   0.5047970863E-01   0.1864205847E-01   0.5894314821E-02
   0.2011616782E+01  -0.3740250620E+00   0.2002595957E+00   0.1161678200E-01   0.2810315804E-01   0.2595927424E-03   0.0000000000E+00   0.0000000000E+00   0.0000000000E+00   0.2241672365E+00  -0.7675237097E+00   0.1031972111E+00   0.3104624766E-01   0.8578468722E-02   0.6026311228E-02
   0.8818858697E+00  -0.6088913724E+00  -0.6359997266E-03   0.3768784718E-02   0.3346728862E-01  -0.6359997266E-03   0.0000000000E+00   0.0000000000E+00   0.0000000000E+00   0.7430323149E+00  -0.4960653682E+00   0.7151965516E+00  -0.1274111773E+00   0.5091511978E-01   0.5625020367E-01
   0.8820027018E+00  -0.6082305004E+00   0.2005535640E+00   0.3885616846E-02   0.3412816056E-01   0.5535609793E-03   0.0000000000E+00   0.0000000000E+00   0.0000000000E+00  -0.1397716722E+00  -0.1322134175E+01  -0.1290700722E+00  -0.1859298195E+00   0.2272017105E-01   0.2440402353E-01
   0.1078258500E+01  -0.5940242228E+00  -0.5140231198E-03   0.5143870263E-02   0.3223957425E-01  -0.5140231198E-03   0.0000000000E+00   0.0000000000E+00   0.0000000000E+00   0.3978376918E+00  -0.8607229791E+00   0.3254649637E+00   0.4723986305E-01   0.2782220117E-01   0.4176655883E-01
   0.1078304670E+01  -0.5934694251E+00   0.2006020785E+00   0.5190040389E-02   0.3279437193E-01   0.6020755075E-03   0.0000000000E+00   0.0000000000E+00   0.0000000000E+00   0.2921330144E-01  -0.1210219350E+01  -0.2806354388E-01   0.6444639616E-02   0.1480387827E-01   0.1827554544E-01
   0.1266188792E+01  -0.5846204846E+00  -0.4710693340E-03   0.6395991836E-02   0.3151344344E-01  -0.4710693340E-03   0.0000000000E+00   0.0000000000E+00   0.0000000000E+00   0.2781961742E+00  -0.9139121182E+00   0.2151380624E+00   0.7928834770E-01   0.8101364228E-02   0.3088703504E-01
   0.1266201837E+01  -0.5841423549E+00   0.2005958066E+00   0.6409037439E-02   0.3199157306E-01   0.5958035951E-03   0.0000000000E+00   0.0000000000E+00   0.0000000000E+00   0.7024963305E-02  -0.1175572559E+01  -0.4751651523E-01   0.4497975025E-01   0.3236410199E-02   0.1468743316E-01
   0.1451867254E+01  -0.5793894743E+00  -0.4411279245E-03   0.7563024379E-02   0.3102956067E-01  -0.4411279245E-03   0.0000000000E+00   0.0000000000E+00   0.0000000000E+00   0.1958727611E+00  -0.9507362486E+00   0.1308661205E+00   0.1045416121E+00   0.3714700148E-02   0.1567672293E-01
   0.1451867098E+01  -0.5789748509E+00   0.2005753970E+00   0.7562868326E-02   0.3144418412E-01   0.5753940428E-03   0.0000000000E+00   0.0000000000E+00   0.0000000000E+00   0.3893354722E-01  -0.1106374927E+01  -0.2295631996E-01   0.7728729599E-01   0.1417928792E-02   0.7600545625E-02
   0.1637530047E+01  -0.5765632300E+00  -0.4188359079E-03   0.8675537412E-02   0.3064406801E-01  -0.4188359079E-03   0.0000000000E+00   0.0000000000E+00   0.0000000000E+00   0.1606752835E+00  -0.9406317912E+00   0.9121400001E-01   0.1097160919E+00   0.1132140729E-02   0.6272316494E-02
   0.1637526578E+01  -0.5761999101E+00   0.2005429848E+00   0.8672067977E-02   0.3100738790E-01   0.5429818342E-03   0.0000000000E+00   0.0000000000E+00   0.0000000000E+00   0.5220722093E-01  -0.1050722213E+01  -0.1635698199E-01   0.8630477187E-01   0.1420167899E-03   0.3554776301E-02
   0.1823840754E+01  -0.5749357957E+00  -0.3785081417E-03   0.9754794480E-02   0.3026109727E-01  -0.3785081417E-03   0.0000000000E+00   0.0000000000E+00   0.0000000000E+00   0.1254354261E+00  -0.9339113519E+00   0.4232908593E-01   0.8564590366E-01   0.8415223144E-02   0.2927244285E-02
   0.1823838159E+01  -0.5746148849E+00   0.2005135845E+00   0.9752198712E-02   0.3058200807E-01   0.5135814742E-03   0.0000000000E+00   0.0000000000E+00   0.0000000000E+00   0.5817982135E-01  -0.1004048121E+01  -0.2537102356E-01   0.6840450300E-01   0.4456128275E-02   0.2644391074E-02
   0.2010812769E+01  -0.5743567560E+00  -0.2834639194E-03   0.1081276907E-01   0.2970150996E-01  -0.2834639194E-03   0.0000000000E+00   0.0000000000E+00   0.0000000000E+00   0.1643800843E+00  -0.8524808551E+00   0.5169423698E-01   0.5698270972E-01   0.1506171975E-01   0.2047798867E-01
   0.2010813276E+01  -0.5740423357E+00   0.2005073419E+00   0.1081327569E-01   0.3001593026E-01   0.5073389300E-03   0.0000000000E+00   0.0000000000E+00   0.0000000000E+00   0.1620427812E+00  -0.8582651973E+00   0.4867623350E-01   0.4561575177E-01   0.9059359607E-02   0.1535158003E-01
   0.1818463029E+01  -0.7735688808E+00  -0.7497123786E-04   0.8722959161E-02   0.3232644822E-01  -0.7497123786E-04   0.0000000000E+00   0.0000000000E+00   0.0000000000E+00   0.1040570899E+00  -0.9638679353E+00   0.2401909952E-01   0.6951496587E-01  -0.1917998648E-02   0.5567444326E-02
   0.2009811715E+01  -0.7731589095E+00  -0.9345210710E-04   0.9811714881E-02   0.3166609854E-01  -0.9345210710E-04   0.0000000000E+00   0.0000000000E+00   0.0000000000E+00   0.1101080352E+00  -0.9318807685E+00   0.1509871103E-01   0.4541107413E-01  -0.4789783374E-02   0.2096265144E-01
   0.1818485548E+01  -0.7732434316E+00   0.2008318241E+00   0.8745477675E-02   0.3265189735E-01   0.8318210820E-03   0.0000000000E+00   0.0000000000E+00   0.0000000000E+00   0.1312158903E+00  -0.9392388051E+00   0.5085560412E-01   0.6202893443E-01   0.1996534450E-02   0.4265073489E-02
   0.2009837908E+01  -0.7728396310E+00   0.2007572811E+00   0.9837908134E-02   0.3198537705E-01   0.7572781409E-03   0.0000000000E+00   0.0000000000E+00   0.0000000000E+00   0.1100198111E+00  -0.9354019525E+00   0.1390305867E-01   0.4175042152E-01   0.6649828929E-03   0.1576062749E-01
   0.1814376485E+01  -0.9715604037E+00   0.1904981393E-03   0.7736694612E-02   0.3439779632E-01   0.1904981393E-03   0.0000000000E+00   0.0000000000E+00   0.0000000000E+00   0.8102907805E-01  -0.9798648935E+00   0.2473617360E-01   0.4815850908E-01  -0.3211347499E-02   0.1130757433E-01
   0.2008815334E+01  -0.9712676402E+00   0.7960719589E-04   0.8815333715E-02   0.3368395984E-01   0.7960719589E-04   0.0000000000E+00   0.0000000000E+00   0.0000000000E+00   0.5002246290E-01  -0.1000076026E+01  -0.1020360184E-01   0.3267841397E-01  -0.1229364727E-01   0.2266649081E-01
   0.1814443739E+01  -0.9712267453E+00   0.2011375478E+00   0.7803949076E-02   0.3473145474E-01   0.1137544811E-02   0.0000000000E+00   0.0000000000E+00   0.0000000000E+00   0.1065441088E+00  -0.9614753393E+00   0.4744881348E-01   0.3541192448E-01  -0.9867521099E-03   0.7429887098E-02
   0.2008893206E+01  -0.9709397046E+00   0.2010073549E+00   0.8893205504E-02   0.3401189544E-01   0.1007351904E-02   0.0000000000E+00   0.0000000000E+00   0.0000000000E+00   0.3156436145E-01  -0.1026603346E+01  -0.3265366164E-01   0.2272578299E-01  -0.6216209273E-02   0.1629986728E-01
   0.1811495330E+01  -0.1169193665E+01   0.4612234754E-03   0.6850029971E-02   0.3646846525E-01   0.4612234754E-03   0.0000000000E+00   0.0000000000E+00   0.0000000000E+00   0.6198159827E-01  -0.9851241453E+00   0.3598185558E-01   0.2518817935E-01  -0.1846578349E-02   0.9060008756E-02
   0.2007897737E+01  -0.1168997588E+01   0.2826922313E-03   0.7897736805E-02   0.3573995216E-01   0.2826922313E-03   0.0000000000E+00   0.0000000000E+00   0.0000000000E+00   0.1106152814E-01  -0.1036298084E+01  -0.1087581370E-01   0.1650079753E-01  -0.1363718091E-01   0.1637304989E-01
   0.1811611103E+01  -0.1168844818E+01   0.2014550623E+00   0.6965803198E-02   0.3681731185E-01   0.1455059296E-02   0.0000000000E+00   0.0000000000E+00   0.0000000000E+00   0.7537098886E-01  -0.9835513805E+00   0.4431172338E-01   0.1490734797E-01  -0.1518825372E-02   0.5512992651E-02
   0.2008031381E+01  -0.1168653797E+01   0.2012840244E+00   0.8031381471E-02   0.3608374251E-01   0.1284021382E-02   0.0000000000E+00   0.0000000000E+00   0.0000000000E+00  -0.2254885904E-01  -0.1082868212E+01  -0.5104386883E-01   0.8444001222E-02  -0.8624839159E-02   0.1160899158E-01
   0.1809485150E+01  -0.1366645807E+01   0.7708100903E-03   0.6073309815E-02   0.3853512310E-01   0.7708100903E-03   0.0000000000E+00   0.0000000000E+00   0.0000000000E+00   0.4183184250E-01  -0.9906426740E+00   0.4331275266E-01   0.6363095630E-02  -0.5754083104E-03   0.5076238946E-02
   0.2007086816E+01  -0.1366532943E+01   0.5515606005E-03   0.7086815876E-02   0.3781828732E-01   0.5515606005E-03   0.0000000000E+00   0.0000000000E+00   0.0000000000E+00  -0.1500139760E-01  -0.1054513991E+01  -0.4936355065E-02   0.3587163212E-02  -0.1225433777E-01   0.8407273306E-02
   0.1809638282E+01  -0.1366275504E+01   0.2018049323E+00   0.6226442006E-02   0.3890542623E-01   0.1804929277E-02   0.0000000000E+00   0.0000000000E+00   0.0000000000E+00   0.4173198174E-01  -0.1006005689E+01   0.3646746542E-01  -0.1108810131E-02  -0.1108750650E-02   0.2269325230E-02
   0.2007263087E+01  -0.1366166808E+01   0.2016089702E+00   0.7263086750E-02   0.3818442174E-01   0.1608967227E-02   0.0000000000E+00   0.0000000000E+00   0.0000000000E+00  -0.5488155829E-01  -0.1110862172E+01  -0.5309985199E-01  -0.2052238944E-02  -0.8299198510E-02   0.5535434495E-02
   0.1808022311E+01  -0.1564014357E+01   0.1129108465E-02   0.5392000793E-02   0.4059608278E-01   0.1129108465E-02   0.0000000000E+00   0.0000000000E+00   0.0000000000E+00   0.2217929874E-01  -0.9973955930E+00   0.4488489900E-01  -0.7108029540E-02   0.2497899795E-03   0.1560102156E-02
   0.2006376175E+01  -0.1563977738E+01   0.8928304267E-03   0.6376174771E-02   0.3990505248E-01   0.8928304267E-03   0.0000000000E+00   0.0000000000E+00   0.0000000000E+00  -0.3018118527E-01  -0.1059874020E+01   0.2599390936E-02  -0.4929574061E-02  -0.9584813646E-02   0.1795023678E-02
   0.1808199121E+01  -0.1563618957E+01   0.2021926976E+00   0.5568810544E-02   0.4099148319E-01   0.2192694631E-02   0.0000000000E+00   0.0000000000E+00   0.0000000000E+00   0.1322923232E-01  -0.1023003287E+01   0.2846631585E-01  -0.1160147792E-01  -0.5221349069E-03  -0.6901444904E-03
   0.2006578222E+01  -0.1563585524E+01   0.2019858739E+00   0.6578221578E-02   0.4029726642E-01   0.1985870928E-02   0.0000000000E+00   0.0000000000E+00   0.0000000000E+00  -0.6912018909E-01  -0.1116605261E+01  -0.4519014888E-01  -0.7841547890E-02  -0.6647037724E-02   0.2597497693E-03
   0.1806875991E+01  -0.1761349029E+01   0.1532359049E-02   0.4785110965E-02   0.4265027105E-01   0.1532359049E-02   0.0000000000E+00   0.0000000000E+00   0.0000000000E+00   0.2389357782E-02  -0.1006279332E+01   0.4048070981E-01  -0.1576239890E-01   0.7268983675E-03  -0.7294418331E-03
   0.2005746207E+01  -0.1761387395E+01   0.1296919842E-02   0.5746206974E-02   0.4198939457E-01   0.1296919842E-02   0.0000000000E+00   0.0000000000E+00   0.0000000000E+00  -0.3926505711E-01  -0.1058449245E+01   0.8060721970E-02  -0.9683855706E-02  -0.6554603415E-02  -0.2556827704E-02
   0.1807064354E+01  -0.1760928041E+01   0.2026156804E+00   0.4973473758E-02   0.4307125895E-01   0.2615677392E-02   0.0000000000E+00   0.0000000000E+00   0.0000000000E+00  -0.1074213757E-01  -0.1035481149E+01   0.2006845944E-01  -0.1789790075E-01   0.4722795760E-04  -0.2813996362E-02
   0.2005958862E+01  -0.1760968652E+01   0.2024085975E+00   0.5958861980E-02   0.4240813764E-01   0.2408594486E-02   0.0000000000E+00   0.0000000000E+00   0.0000000000E+00  -0.7215110834E-01  -0.1108358873E+01  -0.3320285667E-01  -0.1045040830E-01  -0.4485657227E-02  -0.3500818563E-02
   0.1805904167E+01  -0.1958673464E+01   0.1973203977E-02   0.4231826603E-02   0.4469682558E-01   0.1973203977E-02   0.0000000000E+00   0.0000000000E+00   0.0000000000E+00  -0.1612329170E-01  -0.1015545259E+01   0.3281903197E-01  -0.2061164887E-01   0.9781714960E-03  -0.2063853674E-02
   0.2005175231E+01  -0.1958789824E+01   0.1749766137E-02   0.5175231068E-02   0.4406380555E-01   0.1749766137E-02   0.0000000000E+00   0.0000000000E+00   0.0000000000E+00  -0.4449803657E-01  -0.1053140680E+01   0.1140873905E-01  -0.1191498179E-01  -0.3699843537E-02  -0.4938171275E-02
   0.1806095274E+01  -0.1958229113E+01   0.2030688264E+00   0.4422934238E-02   0.4514117702E-01   0.3068823369E-02   0.0000000000E+00   0.0000000000E+00   0.0000000000E+00  -0.2991413787E-01  -0.1043298929E+01   0.1265246840E-01  -0.2107267211E-01   0.5126735433E-03  -0.4155239012E-02
   0.2005387373E+01  -0.1958346912E+01   0.2028681210E+00   0.5387373211E-02   0.4450671777E-01   0.2868117954E-02   0.0000000000E+00   0.0000000000E+00   0.0000000000E+00  -0.6905702443E-01  -0.1092381272E+01  -0.2029092578E-01  -0.1119104050E-01  -0.2328817132E-02  -0.5779704634E-02
   0.1805027972E+01  -0.2155996714E+01   0.2442350276E-02   0.3713262483E-02   0.4673513606E-01   0.2442350276E-02   0.0000000000E+00   0.0000000000E+00   0.0000000000E+00  -0.3350444897E-01  -0.1024772799E+01   0.2350288883E-01  -0.2236202416E-01   0.1042117755E-02  -0.2580653317E-02
   0.2004642438E+01  -0.2156197305E+01   0.2236095430E-02   0.4642437770E-02   0.4612398488E-01   0.2236095430E-02   0.0000000000E+00   0.0000000000E+00   0.0000000000E+00  -0.4833789861E-01  -0.1046728274E+01   0.1273573723E-01  -0.1226314415E-01  -0.1389837022E-02  -0.5657572505E-02
   0.1805216163E+01  -0.2155533078E+01   0.2035457896E+00   0.3901452874E-02   0.4719877176E-01   0.3545786581E-02   0.0000000000E+00   0.0000000000E+00   0.0000000000E+00  -0.4513293080E-01  -0.1047347443E+01   0.6840256856E-02  -0.2185269972E-01   0.8269451032E-03  -0.4757015101E-02
   0.2004847048E+01  -0.2155734476E+01   0.2033545742E+00   0.4847048345E-02   0.4658681385E-01   0.3354571186E-02   0.0000000000E+00   0.0000000000E+00   0.0000000000E+00  -0.6434819310E-01  -0.1074171080E+01  -0.8755021125E-02  -0.1073503660E-01  -0.4837299923E-03  -0.6725637185E-02
   0.1804210451E+01  -0.2353318853E+01   0.2930745614E-02   0.3210331046E-02   0.4876501703E-01   0.2930745614E-02   0.0000000000E+00   0.0000000000E+00   0.0000000000E+00  -0.4928123074E-01  -0.1033064243E+01   0.1457187071E-01  -0.2107687600E-01   0.9776333936E-03  -0.2869668946E-02
   0.2004126871E+01  -0.2353609884E+01   0.2741749047E-02   0.4126871141E-02   0.4816857587E-01   0.2741749047E-02   0.0000000000E+00   0.0000000000E+00   0.0000000000E+00  -0.5251899190E-01  -0.1041269348E+01   0.1258162300E-01  -0.1082471268E-01   0.1639295513E-03  -0.5429378194E-02
   0.1804393226E+01  -0.2352840937E+01   0.2040402453E+00   0.3393105643E-02   0.4924293287E-01   0.4040242294E-02   0.0000000000E+00   0.0000000000E+00   0.0000000000E+00  -0.5798990306E-01  -0.1049375069E+01   0.2345352037E-02  -0.2013336661E-01   0.1035243620E-02  -0.4906973344E-02
   0.2004321013E+01  -0.2353132284E+01   0.2038586593E+00   0.4321013458E-02   0.4864617582E-01   0.3858656281E-02   0.0000000000E+00   0.0000000000E+00   0.0000000000E+00  -0.6199050729E-01  -0.1058664568E+01  -0.6100652792E-03  -0.9013639640E-02   0.9337921095E-03  -0.6703821266E-02
   0.1803446324E+01  -0.2550633771E+01   0.3429985982E-02   0.2704414099E-02   0.5078686860E-01   0.3429985982E-02   0.0000000000E+00   0.0000000000E+00   0.0000000000E+00  -0.6094718621E-01  -0.1037748810E+01   0.9614253155E-02  -0.1766724286E-01   0.8581261845E-03  -0.2051570878E-02
   0.2003608556E+01  -0.2551019314E+01   0.3253984655E-02   0.3608556100E-02   0.5019890563E-01   0.3253984655E-02   0.0000000000E+00   0.0000000000E+00   0.0000000000E+00  -0.5490472657E-01  -0.1035027396E+01   0.1481163550E-01  -0.7671401381E-02   0.8734429153E-03  -0.3422311770E-02
   0.1803624180E+01  -0.2550146639E+01   0.2045458488E+00   0.2882270290E-02   0.5127400097E-01   0.4545845802E-02   0.0000000000E+00   0.0000000000E+00   0.0000000000E+00  -0.6583205187E-01  -0.1047070976E+01   0.2723986790E-02  -0.1725488355E-01   0.1163382108E-02  -0.4003915795E-02
   0.2003793034E+01  -0.2550532034E+01   0.2043715463E+00   0.3793034165E-02   0.5068618622E-01   0.4371543267E-02   0.0000000000E+00   0.0000000000E+00   0.0000000000E+00  -0.6108838719E-01  -0.1045935082E+01   0.6557653542E-02  -0.6559465624E-02   0.1842009813E-02  -0.5260647430E-02
   0.1802746869E+01  -0.2747930889E+01   0.3923840717E-02   0.2178048672E-02   0.5280172106E-01   0.3923840717E-02   0.0000000000E+00   0.0000000000E+00   0.0000000000E+00  -0.6695628925E-01  -0.1036032268E+01   0.1339478580E-01  -0.9820476916E-02   0.1468269680E-02   0.4194334300E-03
   0.2003065329E+01  -0.2748410945E+01   0.3754509191E-02   0.3065329075E-02   0.5221843473E-01   0.3754509191E-02   0.0000000000E+00   0.0000000000E+00   0.0000000000E+00  -0.5924270903E-01  -0.1030807344E+01   0.1936552716E-01  -0.1575276699E-03   0.1755570438E-02  -0.7506160744E-04
   0.1802925193E+01  -0.2747438810E+01   0.2050515576E+00   0.2356372548E-02   0.5329380038E-01   0.5051554586E-02   0.0000000000E+00   0.0000000000E+00   0.0000000000E+00  -0.7956689427E-01  -0.1050674878E+01   0.7985063540E-05  -0.9882502949E-02   0.1172153530E-02  -0.1797775733E-02
   0.2003246808E+01  -0.2747918084E+01   0.2048813119E+00   0.3246808393E-02   0.5271129582E-01   0.4881308866E-02   0.0000000000E+00   0.0000000000E+00   0.0000000000E+00  -0.7037210606E-01  -0.1044433348E+01   0.7310561083E-02   0.6313903337E-04   0.2363098696E-02  -0.2594056135E-02
   0.1802060829E+01  -0.2945188273E+01   0.4405204153E-02   0.1607998996E-02   0.5481172718E-01   0.4405204153E-02   0.0000000000E+00   0.0000000000E+00   0.0000000000E+00  -0.8692034207E-01  -0.1047931666E+01   0.7161554800E-02  -0.3359906405E-02   0.3083803427E-02   0.1771661408E-02
   0.2002475198E+01  -0.2945768000E+01   0.4241031967E-02   0.2475198042E-02   0.5423199957E-01   0.4241031967E-02   0.0000000000E+00   0.0000000000E+00   0.0000000000E+00  -0.7568985755E-01  -0.1039765448E+01   0.1502004817E-01   0.5418676018E-02   0.2623506229E-02   0.1503084140E-02
   0.1802240147E+01  -0.2944693746E+01   0.2055521320E+00   0.1787316855E-02   0.5530625362E-01   0.5552129001E-02   0.0000000000E+00   0.0000000000E+00   0.0000000000E+00  -0.1050879227E+00  -0.1067350048E+01  -0.1156471316E-01  -0.3114157045E-02   0.1174962412E-02   0.1231977590E-03
   0.2002656706E+01  -0.2945271806E+01   0.2053844214E+00   0.2656705624E-02   0.5472819400E-01   0.5384418409E-02   0.0000000000E+00   0.0000000000E+00   0.0000000000E+00  -0.8881453934E-01  -0.1054685877E+01   0.1208439254E-02   0.5585475065E-02   0.2376977558E-02  -0.5248947956E-03
   0.1627677194E+01  -0.7751846655E+00  -0.7683785751E-04   0.7614123940E-02   0.3280826949E-01  -0.7683785751E-04   0.0000000000E+00   0.0000000000E+00   0.0000000000E+00   0.7229980272E-01  -0.1031779855E+01   0.2846891621E-02   0.8822960864E-01   0.9746425640E-03   0.7514875175E-02
   0.1627699129E+01  -0.7748189695E+00   0.2008870533E+00   0.7636058565E-02   0.3317396552E-01   0.8870502924E-03   0.0000000000E+00   0.0000000000E+00   0.0000000000E+00   0.1303707284E+00  -0.9728794842E+00   0.6216546095E-01   0.7762491549E-01   0.4269483307E-02   0.4353920504E-02
   0.1620382228E+01  -0.9730924499E+00   0.2194502014E-03   0.6643688194E-02   0.3495990014E-01   0.2194502014E-03   0.0000000000E+00   0.0000000000E+00   0.0000000000E+00   0.4475260161E-01  -0.1043341008E+01  -0.1504453765E-02   0.5866783887E-01   0.6679840113E-02   0.1330114031E-01
   0.1620442790E+01  -0.9727233001E+00   0.2012133229E+00   0.6704249656E-02   0.3532904990E-01   0.1213319937E-02   0.0000000000E+00   0.0000000000E+00   0.0000000000E+00   0.6747494144E-01  -0.1023795957E+01   0.2001807456E-01   0.4379811002E-01   0.5629085322E-02   0.7733014466E-02
   0.1615406300E+01  -0.1170569334E+01   0.5222775091E-03   0.5792759748E-02   0.3708990645E-01   0.5222775091E-03   0.0000000000E+00   0.0000000000E+00   0.0000000000E+00   0.2857717767E-01  -0.1037264608E+01   0.1097089028E-01   0.2994684990E-01   0.1166897561E-01   0.9434407446E-02
   0.1615508903E+01  -0.1170191240E+01   0.2015511952E+00   0.5895363187E-02   0.3746799973E-01   0.1551192194E-02   0.0000000000E+00   0.0000000000E+00   0.0000000000E+00   0.2816953090E-01  -0.1044955285E+01   0.7384079614E-02   0.1815553958E-01   0.7427599905E-02   0.4991612012E-02
   0.1612084761E+01  -0.1367818916E+01   0.8624954402E-03   0.5054250941E-02   0.3919593440E-01   0.8624954402E-03   0.0000000000E+00   0.0000000000E+00   0.0000000000E+00   0.1346202731E-01  -0.1030216767E+01   0.2136004657E-01   0.6017139757E-02   0.1373551637E-01   0.4638989533E-02
   0.1612219579E+01  -0.1367426316E+01   0.2019202517E+00   0.5189068638E-02   0.3958853363E-01   0.1920248662E-02   0.0000000000E+00   0.0000000000E+00   0.0000000000E+00  -0.4884843794E-02  -0.1059261765E+01  -0.1820670630E-02  -0.2663183996E-02   0.8344238335E-02   0.1431939710E-02
   0.1609789806E+01  -0.1564964386E+01   0.1247233018E-02   0.4405456041E-02   0.4127898351E-01   0.1247233018E-02   0.0000000000E+00   0.0000000000E+00   0.0000000000E+00   0.7231633471E-03  -0.1023809400E+01   0.2792432716E-01  -0.1184582670E-01   0.1333351586E-01   0.6859274196E-03
   0.1609945769E+01  -0.1564553398E+01   0.2023244524E+00   0.4561419097E-02   0.4168997187E-01   0.2324449392E-02   0.0000000000E+00   0.0000000000E+00   0.0000000000E+00  -0.2531267818E-01  -0.1062399953E+01  -0.3832783745E-02  -0.1745418928E-01   0.8129139795E-02  -0.1578269389E-02
   0.1608077571E+01  -0.1762071234E+01   0.1670320058E-02   0.3824400700E-02   0.4334153644E-01   0.1670320058E-02   0.0000000000E+00   0.0000000000E+00   0.0000000000E+00  -0.1240796151E-01  -0.1021063526E+01   0.2892162560E-01  -0.2413156536E-01   0.1152841665E-01  -0.1636398563E-02
   0.1608245202E+01  -0.1761640387E+01   0.2027598809E+00   0.3992032086E-02   0.4377238250E-01   0.2759877933E-02   0.0000000000E+00   0.0000000000E+00   0.0000000000E+00  -0.3950846820E-01  -0.1060943781E+01  -0.4036677258E-02  -0.2734956257E-01   0.7180426609E-02  -0.3534480685E-02
   0.1606677557E+01  -0.1959169535E+01   0.2124630204E-02   0.3291157469E-02   0.4538640502E-01   0.2124630204E-02   0.0000000000E+00   0.0000000000E+00   0.0000000000E+00  -0.2472655548E-01  -0.1020441149E+01   0.2688565633E-01  -0.3148786209E-01   0.9118024117E-02  -0.2879938484E-02
   0.1606850199E+01  -0.1958719660E+01   0.2032217569E+00   0.3463798591E-02   0.4583628008E-01   0.3221753875E-02   0.0000000000E+00   0.0000000000E+00   0.0000000000E+00  -0.4902622047E-01  -0.1056372764E+01  -0.2757290083E-02  -0.3301825650E-01   0.5842082860E-02  -0.4667120434E-02
   0.1605445569E+01  -0.2156270658E+01   0.2601872332E-02   0.2788849101E-02   0.4741629153E-01   0.2601872332E-02   0.0000000000E+00   0.0000000000E+00   0.0000000000E+00  -0.3804052705E-01  -0.1023022992E+01   0.2171043962E-01  -0.3460190362E-01   0.6659723764E-02  -0.3254328388E-02
   0.1605618937E+01  -0.2155804344E+01   0.2037044574E+00   0.2962216621E-02   0.4788260568E-01   0.3704454385E-02   0.0000000000E+00   0.0000000000E+00   0.0000000000E+00  -0.5615857343E-01  -0.1050683190E+01  -0.8032542056E-03  -0.3515542603E-01   0.4379976785E-02  -0.5051577370E-02
   0.1604324845E+01  -0.2353374977E+01   0.3094413376E-02   0.2300285089E-02   0.4943369337E-01   0.3094413376E-02   0.0000000000E+00   0.0000000000E+00   0.0000000000E+00  -0.5121469818E-01  -0.1027065202E+01   0.1592912921E-01  -0.3347784376E-01   0.4564770696E-02  -0.3249360763E-02
   0.1604497126E+01  -0.2352895947E+01   0.2042025608E+00   0.2472566337E-02   0.4991272289E-01   0.4202557766E-02   0.0000000000E+00   0.0000000000E+00   0.0000000000E+00  -0.6283247169E-01  -0.1045572044E+01   0.1141110716E-02  -0.3358128408E-01   0.3041104531E-02  -0.4936103407E-02
   0.1603321020E+01  -0.2550477129E+01   0.3595521936E-02   0.1808109981E-02   0.5144109094E-01   0.3595521936E-02   0.0000000000E+00   0.0000000000E+00   0.0000000000E+00  -0.6597974424E-01  -0.1034022540E+01   0.8693544284E-02  -0.2948392881E-01   0.3156264381E-02  -0.2931457759E-02
   0.1603492810E+01  -0.2549989691E+01   0.2047108338E+00   0.1979900253E-02   0.5192852864E-01   0.4710830762E-02   0.0000000000E+00   0.0000000000E+00   0.0000000000E+00  -0.6814788635E-01  -0.1040189725E+01   0.4713379101E-02  -0.3015552154E-01   0.1982269147E-02  -0.4135666365E-02
   0.1602472617E+01  -0.2747556736E+01   0.4092125958E-02   0.1298976765E-02   0.5344099359E-01   0.4092125958E-02   0.0000000000E+00   0.0000000000E+00   0.0000000000E+00  -0.6380655622E-01  -0.1024296030E+01   0.2073883289E-01  -0.2141793891E-01   0.2688409683E-02   0.3751349034E-03
   0.1602648835E+01  -0.2747065181E+01   0.2052197506E+00   0.1475195454E-02   0.5393254893E-01   0.5219747596E-02   0.0000000000E+00   0.0000000000E+00   0.0000000000E+00  -0.7640561994E-01  -0.1038139962E+01   0.7870142943E-02  -0.2226288548E-01   0.8707151210E-03  -0.1332508600E-02
   0.1601698012E+01  -0.2944563989E+01   0.4563583236E-02   0.7539722294E-03   0.5543601138E-01   0.4563583236E-02   0.0000000000E+00   0.0000000000E+00   0.0000000000E+00  -0.9183397897E-01  -0.1042048165E+01   0.1119895496E-01  -0.1429668441E-01   0.5246774527E-02   0.3089222648E-02
   0.1601876312E+01  -0.2944071276E+01   0.2057175920E+00   0.9322721305E-03   0.5592872440E-01   0.5717589004E-02   0.0000000000E+00   0.0000000000E+00   0.0000000000E+00  -0.1204781283E+00  -0.1070990328E+01  -0.1754642347E-01  -0.1446572792E-01   0.7862240366E-03   0.1504211822E-02
   0.1437219679E+01  -0.7784899444E+00  -0.8600967215E-04   0.6472049435E-02   0.3330159464E-01  -0.8600967215E-04   0.0000000000E+00   0.0000000000E+00   0.0000000000E+00   0.7587256370E-01  -0.1066805508E+01   0.1293695090E-01   0.7494784762E-01   0.6577586526E-02   0.1408078245E-01
   0.1437247775E+01  -0.7780787961E+00   0.2009297071E+00   0.6500144547E-02   0.3371274291E-01   0.9297041088E-03   0.0000000000E+00   0.0000000000E+00   0.0000000000E+00   0.1427911666E+00  -0.9927016937E+00   0.8464031847E-01   0.6500377880E-01   0.7955042307E-02   0.7007854257E-02
   0.1426579729E+01  -0.9765934078E+00   0.2229076297E-03   0.5525488772E-02   0.3554293219E-01   0.2229076297E-03   0.0000000000E+00   0.0000000000E+00   0.0000000000E+00   0.5771349368E-01  -0.1059923267E+01   0.2099173609E-01   0.3929371882E-01   0.1121130827E-01   0.1809543893E-01
   0.1426641048E+01  -0.9761867663E+00   0.2012655641E+00   0.5586807887E-02   0.3594957368E-01   0.1265561147E-02   0.0000000000E+00   0.0000000000E+00   0.0000000000E+00   0.5552856562E-01  -0.1059354946E+01   0.2088206457E-01   0.2590483561E-01   0.8848494227E-02   0.9804578777E-02
   0.1419448190E+01  -0.1173973739E+01   0.5453337118E-03   0.4718240160E-02   0.3774077075E-01   0.5453337118E-03   0.0000000000E+00   0.0000000000E+00   0.0000000000E+00   0.5133132610E-01  -0.1035531010E+01   0.4422269031E-01   0.1051447749E-01   0.1508098633E-01   0.1132764531E-01
   0.1419545588E+01  -0.1173566052E+01   0.2016165172E+00   0.4815638147E-02   0.3814845795E-01   0.1616514161E-02   0.0000000000E+00   0.0000000000E+00   0.0000000000E+00   0.6026147072E-02  -0.1082437869E+01  -0.1035462984E-02   0.4958249504E-03   0.1016589605E-01   0.5673921126E-02
   0.1414780613E+01  -0.1370926273E+01   0.9093720164E-03   0.4025212835E-02   0.3989373723E-01   0.9093720164E-03   0.0000000000E+00   0.0000000000E+00   0.0000000000E+00   0.3809415414E-01  -0.1018736430E+01   0.5628253144E-01  -0.1168296094E-01   0.1598497794E-01   0.4560612232E-02
   0.1414904739E+01  -0.1370511463E+01   0.2020011026E+00   0.4149339258E-02   0.4030854734E-01   0.2001099579E-02   0.0000000000E+00   0.0000000000E+00   0.0000000000E+00  -0.3415325380E-01  -0.1096598171E+01  -0.1789969358E-01  -0.1884111004E-01   0.1042443958E-01   0.1218653532E-02
   0.1411629183E+01  -0.1567668754E+01   0.1319392768E-02   0.3414973038E-02   0.4200522590E-01   0.1319392768E-02   0.0000000000E+00   0.0000000000E+00   0.0000000000E+00   0.2264882770E-01  -0.1008067629E+01   0.5915682705E-01  -0.2701872913E-01   0.1471929144E-01  -0.6492886365E-03
   0.1411770925E+01  -0.1567241975E+01   0.2024216095E+00   0.3556715309E-02   0.4243200490E-01   0.2421606491E-02   0.0000000000E+00   0.0000000000E+00   0.0000000000E+00  -0.5582907452E-01  -0.1094871352E+01  -0.2264056900E-01  -0.3169634831E-01   0.9628155484E-02  -0.2291262001E-02
   0.1409334246E+01  -0.1764327081E+01   0.1765247235E-02   0.2865136086E-02   0.4408057908E-01   0.1765247235E-02   0.0000000000E+00   0.0000000000E+00   0.0000000000E+00   0.3128485773E-02  -0.1005592091E+01   0.5290565981E-01  -0.3691657155E-01   0.1243771092E-01  -0.3492287159E-02
   0.1409486318E+01  -0.1763885573E+01   0.2028718933E+00   0.3017207577E-02   0.4452208658E-01   0.2871890341E-02   0.0000000000E+00   0.0000000000E+00   0.0000000000E+00  -0.6932846473E-01  -0.1087648964E+01  -0.2363709891E-01  -0.3984818906E-01   0.8234513911E-02  -0.4378293425E-02
   0.1407495175E+01  -0.1960961969E+01   0.2238846381E-02   0.2356564854E-02   0.4612550133E-01   0.2238846381E-02   0.0000000000E+00   0.0000000000E+00   0.0000000000E+00  -0.1661944532E-01  -0.1007303118E+01   0.4284900254E-01  -0.4205207041E-01   0.9827449408E-02  -0.4851123791E-02
   0.1407652898E+01  -0.1960505080E+01   0.2033467029E+00   0.2514287759E-02   0.4658239045E-01   0.3346699857E-02   0.0000000000E+00   0.0000000000E+00   0.0000000000E+00  -0.7609808969E-01  -0.1076352757E+01  -0.2086550373E-01  -0.4387275632E-01   0.6551958364E-02  -0.5461826845E-02
   0.1405902451E+01  -0.2157598671E+01   0.2731259548E-02   0.1874510988E-02   0.4814559871E-01   0.2731259548E-02   0.0000000000E+00   0.0000000000E+00   0.0000000000E+00  -0.3859134308E-01  -0.1014525113E+01   0.2886681657E-01  -0.4318668089E-01   0.7378112715E-02  -0.5086461612E-02
   0.1406062973E+01  -0.2157127489E+01   0.2038401737E+00   0.2035033050E-02   0.4861678123E-01   0.3840170681E-02   0.0000000000E+00   0.0000000000E+00   0.0000000000E+00  -0.8009576327E-01  -0.1064583153E+01  -0.1657195831E-01  -0.4451874567E-01   0.4801345319E-02  -0.5674445824E-02
   0.1404480085E+01  -0.2354243726E+01   0.3235012081E-02   0.1403674615E-02   0.5014613364E-01   0.3235012081E-02   0.0000000000E+00   0.0000000000E+00   0.0000000000E+00  -0.5876421776E-01  -0.1022635448E+01   0.1637126150E-01  -0.4036831826E-01   0.5537672210E-02  -0.4347826015E-02
   0.1404642668E+01  -0.2353760660E+01   0.2043470688E+00   0.1566257812E-02   0.5062919950E-01   0.4347065808E-02   0.0000000000E+00   0.0000000000E+00   0.0000000000E+00  -0.8210031218E-01  -0.1052699565E+01  -0.1016396147E-01  -0.4162015131E-01   0.3232747654E-02  -0.5090356426E-02
   0.1403242179E+01  -0.2550885738E+01   0.3743733062E-02   0.9281086441E-03   0.5213207234E-01   0.3743733062E-02   0.0000000000E+00   0.0000000000E+00   0.0000000000E+00  -0.8402819328E-01  -0.1038132485E+01  -0.4912988698E-03  -0.3441518285E-01   0.4760358326E-02  -0.4750989526E-02
   0.1403408124E+01  -0.2550394279E+01   0.2048626403E+00   0.1094054410E-02   0.5262353058E-01   0.4862637327E-02   0.0000000000E+00   0.0000000000E+00   0.0000000000E+00  -0.8710493116E-01  -0.1045446443E+01  -0.5720520539E-02  -0.3671419494E-01   0.2039432314E-02  -0.4552725815E-02
   0.1402249774E+01  -0.2747476789E+01   0.4251122041E-02   0.4365043913E-03   0.5410793136E-01   0.4251122041E-02   0.0000000000E+00   0.0000000000E+00   0.0000000000E+00  -0.7250917863E-01  -0.1018901905E+01   0.2016096367E-01  -0.2665783754E-01   0.4582786721E-02   0.1934326703E-03
   0.1402424806E+01  -0.2746981196E+01   0.2053808542E+00   0.6115356780E-03   0.5460352389E-01   0.5380851238E-02   0.0000000000E+00   0.0000000000E+00   0.0000000000E+00  -0.8182868407E-01  -0.1029357537E+01   0.1056166134E-01  -0.2911451979E-01   0.5703702296E-03  -0.6583006797E-03
   0.1401398051E+01  -0.2943922595E+01   0.4711132154E-02  -0.7391937948E-04   0.5607740458E-01   0.4711132154E-02   0.0000000000E+00   0.0000000000E+00   0.0000000000E+00  -0.1135792975E+00  -0.1046389742E+01   0.3940906976E-02  -0.2041788841E-01   0.6958852836E-02   0.5790605299E-02
   0.1401576409E+01  -0.2943426336E+01   0.2058764926E+00   0.1044386455E-03   0.5657366411E-01   0.5876489614E-02   0.0000000000E+00   0.0000000000E+00   0.0000000000E+00  -0.1549910591E+00  -0.1087794321E+01  -0.3764465588E-01  -0.2197040313E-01  -0.2374946229E-03   0.4040733777E-02
   0.1246190527E+01  -0.7852960149E+00  -0.1199421960E-03   0.5280717459E-02   0.3392250108E-01  -0.1199421960E-03   0.0000000000E+00   0.0000000000E+00   0.0000000000E+00   0.8482930609E-01  -0.1094354318E+01   0.3165633538E-01   0.4157069426E-01   0.1437543178E-01   0.2356385822E-01
   0.1246237299E+01  -0.7848331760E+00   0.2009519643E+00   0.5327488562E-02   0.3438534001E-01   0.9519613355E-03   0.0000000000E+00   0.0000000000E+00   0.0000000000E+00   0.1121028017E+00  -0.1049519239E+01   0.6926584130E-01   0.3150242097E-01   0.1236957614E-01   0.1145222921E-01
   0.1232221524E+01  -0.9841394708E+00   0.2050021530E-03   0.4371323510E-02   0.3626844924E-01   0.2050021530E-03   0.0000000000E+00   0.0000000000E+00   0.0000000000E+00   0.7388396897E-01  -0.1070743249E+01   0.4976294527E-01   0.1612680155E-02   0.1696387249E-01   0.2180177116E-01
   0.1232295206E+01  -0.9836941763E+00   0.2013000105E+00   0.4445006116E-02   0.3671374370E-01   0.1300007460E-02   0.0000000000E+00   0.0000000000E+00   0.0000000000E+00   0.1201548294E-01  -0.1121224644E+01  -0.5378885335E-02  -0.1090724016E-01   0.1239303811E-01   0.1168800297E-01
   0.1223105798E+01  -0.1181477020E+01   0.5526650004E-03   0.3621107791E-02   0.3853563952E-01   0.5526650004E-03   0.0000000000E+00   0.0000000000E+00   0.0000000000E+00   0.6953158421E-01  -0.1033755765E+01   0.7612439539E-01  -0.2530104146E-01   0.1792578285E-01   0.1169139764E-01
   0.1223208125E+01  -0.1181041122E+01   0.2016678683E+00   0.3723435164E-02   0.3897153788E-01   0.1667865337E-02   0.0000000000E+00   0.0000000000E+00   0.0000000000E+00  -0.4143745738E-01  -0.1139682244E+01  -0.3112277355E-01  -0.3405235879E-01   0.1209367080E-01   0.6013380415E-02
   0.1217246225E+01  -0.1377891327E+01   0.9480725766E-03   0.2984814858E-02   0.4072735314E-01   0.9480725766E-03   0.0000000000E+00   0.0000000000E+00   0.0000000000E+00   0.5556586151E-01  -0.1008146252E+01   0.8665006801E-01  -0.4342151579E-01   0.1568687869E-01   0.2437999059E-02
   0.1217368009E+01  -0.1377456270E+01   0.2020726608E+00   0.3106598857E-02   0.4116241045E-01   0.2072657847E-02   0.0000000000E+00   0.0000000000E+00   0.0000000000E+00  -0.7925314764E-01  -0.1143577872E+01  -0.4729016150E-01  -0.4949790019E-01   0.1048042550E-01   0.3907765498E-03
   0.1213339174E+01  -0.1573845208E+01   0.1390486927E-02   0.2421944247E-02   0.4285258185E-01   0.1390486927E-02   0.0000000000E+00   0.0000000000E+00   0.0000000000E+00   0.3533346445E-01  -0.9939204945E+00   0.8304591180E-01  -0.5352594566E-01   0.1158218559E-01  -0.3662473115E-02
   0.1213473143E+01  -0.1573403978E+01   0.2025137839E+00   0.2555912801E-02   0.4329381163E-01   0.2513780875E-02   0.0000000000E+00   0.0000000000E+00   0.0000000000E+00  -0.9489326330E-01  -0.1128951327E+01  -0.4851923154E-01  -0.5760881547E-01   0.7936626238E-02  -0.3459577745E-02
   0.1210520963E+01  -0.1769607172E+01   0.1864435029E-02   0.1910903020E-02   0.4492188781E-01   0.1864435029E-02   0.0000000000E+00   0.0000000000E+00   0.0000000000E+00   0.7409702081E-02  -0.9926779141E+00   0.6699482673E-01  -0.5794480995E-01   0.7205611076E-02  -0.6502114782E-02
   0.1210661930E+01  -0.1769155114E+01   0.2029821109E+00   0.2051869998E-02   0.4537394562E-01   0.2982107934E-02   0.0000000000E+00   0.0000000000E+00   0.0000000000E+00  -0.1021990830E+00  -0.1109732363E+01  -0.4553178595E-01  -0.6083664008E-01   0.5211057899E-02  -0.5429623023E-02
   0.1208278578E+01  -0.1965306556E+01   0.2361053815E-02   0.1433418466E-02   0.4694529383E-01   0.2361053815E-02   0.0000000000E+00   0.0000000000E+00   0.0000000000E+00  -0.2081132559E-01  -0.9969612783E+00   0.4754205303E-01  -0.5734198503E-01   0.3348304431E-02  -0.7434662811E-02
   0.1208423844E+01  -0.1964841203E+01   0.2034721094E+00   0.1578684267E-02   0.4741064738E-01   0.3472106386E-02   0.0000000000E+00   0.0000000000E+00   0.0000000000E+00  -0.1026356515E+00  -0.1087539429E+01  -0.3813969653E-01  -0.5968952161E-01   0.2672243321E-02  -0.6197591928E-02
   0.1206351626E+01  -0.2160998913E+01   0.2871170367E-02   0.9771458285E-03   0.4893222741E-01   0.2871170367E-02   0.0000000000E+00   0.0000000000E+00   0.0000000000E+00  -0.5222147477E-01  -0.1009024865E+01   0.2381931520E-01  -0.5268202424E-01   0.2714352981E-03  -0.7020279914E-02
   0.1206499823E+01  -0.2160519537E+01   0.2039779902E+00   0.1125342962E-02   0.4941160288E-01   0.3977987153E-02   0.0000000000E+00   0.0000000000E+00   0.0000000000E+00  -0.1013705670E+00  -0.1067247687E+01  -0.2967783024E-01  -0.5519697337E-01   0.3802204072E-03  -0.5985372435E-02
   0.1204650826E+01  -0.2356698597E+01   0.3387799058E-02   0.5287559261E-03   0.5089131302E-01   0.3387799058E-02   0.0000000000E+00   0.0000000000E+00   0.0000000000E+00  -0.8039596092E-01  -0.1021781205E+01   0.3672932933E-02  -0.4434483968E-01  -0.1967997403E-02  -0.4895877748E-02
   0.1204802625E+01  -0.2356205828E+01   0.2044950333E+00   0.6805551292E-03   0.5138408223E-01   0.4495030290E-02   0.0000000000E+00   0.0000000000E+00   0.0000000000E+00  -0.9868807543E-01  -0.1048535543E+01  -0.1893643857E-01  -0.4755734562E-01  -0.1673397432E-02  -0.4605307828E-02
   0.1203199947E+01  -0.2552381754E+01   0.3904254959E-02   0.7434735356E-04   0.5283045551E-01   0.3904254959E-02   0.0000000000E+00   0.0000000000E+00   0.0000000000E+00  -0.1194270330E+00  -0.1048617364E+01  -0.2549313489E-01  -0.3142622576E-01  -0.3008187287E-02  -0.5172666928E-02
   0.1203357900E+01  -0.2551877616E+01   0.2050186945E+00   0.2323000980E-03   0.5333459428E-01   0.5018691466E-02   0.0000000000E+00   0.0000000000E+00   0.0000000000E+00  -0.1070542809E+00  -0.1043124911E+01  -0.1700671920E-01  -0.3703307206E-01  -0.3408987818E-02  -0.3962606455E-02
   0.1202073136E+01  -0.2747968136E+01   0.4423682710E-02  -0.3989540594E-03   0.5475670411E-01   0.4423682710E-02   0.0000000000E+00   0.0000000000E+00   0.0000000000E+00  -0.1046045907E+00  -0.1025861044E+01  -0.1849443770E-02  -0.1944765936E-01  -0.3264162024E-02   0.1080908453E-02
   0.1202245125E+01  -0.2747456138E+01   0.2055481483E+00  -0.2269646903E-03   0.5526870171E-01   0.5548145304E-02   0.0000000000E+00   0.0000000000E+00   0.0000000000E+00  -0.9460170662E-01  -0.1019774409E+01   0.6114370995E-02  -0.2635149620E-01  -0.5395797030E-02   0.7042389579E-03
   0.1201168368E+01  -0.2943324499E+01   0.4882842958E-02  -0.8650320275E-03   0.5667550126E-01   0.4882842958E-02   0.0000000000E+00   0.0000000000E+00   0.0000000000E+00  -0.1505232153E+00  -0.1056377124E+01  -0.1906788690E-01  -0.1003514248E-01  -0.4523500698E-02   0.9253433044E-02
   0.1201345131E+01  -0.2942808198E+01   0.2060487537E+00  -0.6882691597E-03   0.5719180203E-01   0.6048750734E-02   0.0000000000E+00   0.0000000000E+00   0.0000000000E+00  -0.1972502203E+00  -0.1105707290E+01  -0.6766492524E-01  -0.1692648722E-01  -0.9000149269E-02   0.6957499814E-02
   0.1052377642E+01  -0.7982566168E+00  -0.1896547832E-03   0.4025761912E-02   0.3483619216E-01  -0.1896547832E-03   0.0000000000E+00   0.0000000000E+00   0.0000000000E+00   0.1093261851E+00  -0.1104847301E+01   0.7215376095E-01  -0.8757831276E-02   0.4504249068E-01   0.3315195373E-01
   0.1052462600E+01  -0.7977374648E+00   0.2009494275E+00   0.4110720091E-02   0.3535534416E-01   0.9494245425E-03   0.0000000000E+00   0.0000000000E+00   0.0000000000E+00   0.7514137791E-01  -0.1104822275E+01   0.5697060255E-01  -0.1731279162E-01   0.2953484038E-01   0.1631489178E-01
   0.1035715705E+01  -0.9984408643E+00   0.1810132339E-03   0.3174904626E-02   0.3729664574E-01   0.1810132339E-03   0.0000000000E+00   0.0000000000E+00   0.0000000000E+00   0.1174155133E+00  -0.1044626928E+01   0.1100846581E+00  -0.5613315908E-01   0.3272334486E-01   0.1831585150E-01
   0.1035817080E+01  -0.9979568898E+00   0.2013275253E+00   0.3276280153E-02   0.3778062017E-01   0.1327522291E-02   0.0000000000E+00   0.0000000000E+00   0.0000000000E+00  -0.1068923291E-01  -0.1151209235E+01  -0.5550079532E-02  -0.6659308172E-01   0.2065392478E-01   0.1030426321E-01
   0.1025319782E+01  -0.1195514544E+01   0.5797598270E-03   0.2502531644E-02   0.3961576594E-01   0.5797598270E-03   0.0000000000E+00   0.0000000000E+00   0.0000000000E+00   0.8256277595E-01  -0.1023387286E+01   0.1047847867E+00  -0.8188854561E-01   0.2159227213E-01   0.7415094236E-02
   0.1025437757E+01  -0.1195051490E+01   0.2017290084E+00   0.2620507400E-02   0.4007882012E-01   0.1729005364E-02   0.0000000000E+00   0.0000000000E+00   0.0000000000E+00  -0.7834548896E-01  -0.1172619491E+01  -0.4887567804E-01  -0.8817825122E-01   0.1346199314E-01   0.4712995758E-02
   0.1018775535E+01  -0.1390818247E+01   0.1030829533E-02   0.1937814709E-02   0.4181217273E-01   0.1030829533E-02   0.0000000000E+00   0.0000000000E+00   0.0000000000E+00   0.5396705024E-01  -0.1000041738E+01   0.9670385936E-01  -0.9276273690E-01   0.8424995129E-02  -0.4111425646E-02
   0.1018902132E+01  -0.1390363407E+01   0.2021689418E+00   0.2064412028E-02   0.4226701283E-01   0.2168938795E-02   0.0000000000E+00   0.0000000000E+00   0.0000000000E+00  -0.1135875717E+00  -0.1164246893E+01  -0.6806578591E-01  -0.9670075676E-01   0.5668807034E-02  -0.1786538480E-02
   0.1014434333E+01  -0.1585286098E+01   0.1522233005E-02   0.1433133450E-02   0.4390733179E-01   0.1522233005E-02   0.0000000000E+00   0.0000000000E+00   0.0000000000E+00   0.1555511316E-01  -0.9938753195E+00   0.7089189781E-01  -0.9296807166E-01  -0.2605769948E-02  -0.9310404872E-02
   0.1014564852E+01  -0.1584829665E+01   0.2026406619E+00   0.1563652240E-02   0.4436376532E-01   0.2640658874E-02   0.0000000000E+00   0.0000000000E+00   0.0000000000E+00  -0.1221520188E+00  -0.1134303830E+01  -0.6748005007E-01  -0.9544538254E-01  -0.7860917988E-03  -0.4973532867E-02
   0.1011293037E+01  -0.1779419314E+01   0.2033173831E-02   0.9697467255E-03   0.4592167635E-01   0.2033173831E-02   0.0000000000E+00   0.0000000000E+00   0.0000000000E+00  -0.2401416263E-01  -0.9962610540E+00   0.4028091651E-01  -0.8646131613E-01  -0.1041883517E-01  -0.1065650122E-01
   0.1011424789E+01  -0.1778954472E+01   0.2031320127E+00   0.1101499190E-02   0.4638651751E-01   0.3132009674E-02   0.0000000000E+00   0.0000000000E+00   0.0000000000E+00  -0.1202628876E+00  -0.1099475178E+01  -0.5919205127E-01  -0.8834754862E-01  -0.5502342706E-02  -0.6016931620E-02
   0.1008781055E+01  -0.1973443579E+01   0.2554578561E-02   0.5308151578E-03   0.4787247074E-01   0.2554578561E-02   0.0000000000E+00   0.0000000000E+00   0.0000000000E+00  -0.5870216021E-01  -0.1000892582E+01   0.1292627003E-01  -0.7495146475E-01  -0.1482198939E-01  -0.9779484055E-02
   0.1008913439E+01  -0.1972965760E+01   0.2036377548E+00   0.6631991838E-03   0.4835029041E-01   0.3637751820E-02   0.0000000000E+00   0.0000000000E+00   0.0000000000E+00  -0.1124759386E+00  -0.1064530286E+01  -0.4589433295E-01  -0.7681481080E-01  -0.8447212453E-02  -0.5762823279E-02
   0.1006620266E+01  -0.2167447584E+01   0.3079377922E-02   0.1067864906E-03   0.4977510597E-01   0.3079377922E-02   0.0000000000E+00   0.0000000000E+00   0.0000000000E+00  -0.9079806309E-01  -0.1009319951E+01  -0.1167242996E-01  -0.6015233497E-01  -0.1646123511E-01  -0.7556334027E-02
   0.1006753314E+01  -0.2166953683E+01   0.2041536351E+00   0.2398339957E-03   0.5026900727E-01   0.4153632093E-02   0.0000000000E+00   0.0000000000E+00   0.0000000000E+00  -0.1046745212E+00  -0.1035179918E+01  -0.3197904845E-01  -0.6266552365E-01  -0.1009403052E-01  -0.4587563439E-02
   0.1004722064E+01  -0.2361452870E+01   0.3603378608E-02  -0.3133356239E-03   0.5164259990E-01   0.3603378608E-02   0.0000000000E+00   0.0000000000E+00   0.0000000000E+00  -0.1134154791E+00  -0.1013479812E+01  -0.2532354929E-01  -0.4378427176E-01  -0.1514947067E-01  -0.3463977667E-02
   0.1004857842E+01  -0.2360940603E+01   0.2046769864E+00  -0.1775583362E-03   0.5215486687E-01   0.4676983389E-02   0.0000000000E+00   0.0000000000E+00   0.0000000000E+00  -0.9435954226E-01  -0.1007865901E+01  -0.1359774801E-01  -0.4742617493E-01  -0.1040962540E-01  -0.2216765537E-02
   0.1003118394E+01  -0.2555427065E+01   0.4122128648E-02  -0.7405258570E-03   0.5348587533E-01   0.4122128648E-02   0.0000000000E+00   0.0000000000E+00   0.0000000000E+00  -0.1384369538E+00  -0.1023710778E+01  -0.3829954709E-01  -0.2344362434E-01  -0.1108098846E-01  -0.1562962489E-02
   0.1003260966E+01  -0.2554895138E+01   0.2052049165E+00  -0.5979544373E-03   0.5401780191E-01   0.5204913501E-02   0.0000000000E+00   0.0000000000E+00   0.0000000000E+00  -0.9721943297E-01  -0.9964967940E+00  -0.4811482497E-02  -0.3031823070E-01  -0.9673564566E-02  -0.5985109849E-03
   0.1001884408E+01  -0.2749278842E+01   0.4647397166E-02  -0.1192501972E-02   0.5531376822E-01   0.4647397166E-02   0.0000000000E+00   0.0000000000E+00   0.0000000000E+00  -0.1133206142E+00  -0.9893231703E+00  -0.2717876100E-02  -0.9413484215E-02  -0.4605475461E-02   0.4129287780E-02
   0.1002044841E+01  -0.2748727641E+01   0.2057422986E+00  -0.1032068514E-02   0.5586496913E-01   0.5742295590E-02   0.0000000000E+00   0.0000000000E+00   0.0000000000E+00  -0.7701480819E-01  -0.9655843520E+00   0.2708788895E-01  -0.1808834536E-01  -0.8351496398E-02   0.3359267070E-02
   0.1000964936E+01  -0.2942866309E+01   0.5135574506E-02  -0.1612483823E-02   0.5713369099E-01   0.5135574506E-02   0.0000000000E+00   0.0000000000E+00   0.0000000000E+00  -0.1356490865E+00  -0.9987529049E+00  -0.1031697209E-02  -0.1271627587E-02  -0.1048959386E-01   0.1194394234E-01
   0.1001131879E+01  -0.2942297918E+01   0.2062654166E+00  -0.1445540909E-02   0.5770208173E-01   0.6265413627E-02   0.0000000000E+00   0.0000000000E+00   0.0000000000E+00  -0.1748836707E+00  -0.1049326465E+01  -0.4619199412E-01  -0.1024786773E-01  -0.1520078634E-01   0.9135612246E-02
   0.8518642268E+00  -0.8198565381E+00  -0.2808827386E-03   0.2711244787E-02   0.3632508393E-01  -0.2808827386E-03   0.0000000000E+00   0.0000000000E+00   0.0000000000E+00  -0.3567658741E-02  -0.1195191079E+01   0.1059758390E-01  -0.1732752421E+00   0.1094941188E-01   0.4137650198E-01
   0.8520146631E+00  -0.8192610862E+00   0.2009367700E+00   0.2861681137E-02   0.3692053575E-01   0.9367669901E-03   0.0000000000E+00   0.0000000000E+00   0.0000000000E+00  -0.2088205840E+00  -0.1348662753E+01  -0.1682660077E+00  -0.1871390587E+00   0.3699478902E-02   0.2112792692E-01
   0.8348174389E+00  -0.1021248338E+01   0.2477814442E-03   0.1947908936E-02   0.3886330234E-01   0.2477814442E-03   0.0000000000E+00   0.0000000000E+00   0.0000000000E+00   0.6345972187E-03  -0.1140776212E+01   0.1465373477E-01  -0.1872465566E+00  -0.2062462366E-01   0.5573206136E-02
   0.8349633420E+00  -0.1020712522E+01   0.2014145366E+00   0.2093811977E-02   0.3939911758E-01   0.1414533634E-02   0.0000000000E+00   0.0000000000E+00   0.0000000000E+00  -0.1838384508E+00  -0.1289832521E+01  -0.1524023593E+00  -0.2019950647E+00  -0.1455729150E-01   0.5042188649E-02
   0.8246921030E+00  -0.1217074125E+01   0.7486703190E-03   0.1380178026E-02   0.4115679497E-01   0.7486703190E-03   0.0000000000E+00   0.0000000000E+00   0.0000000000E+00  -0.4067732547E-01  -0.1112562484E+01  -0.9806658238E-02  -0.1841247795E+00  -0.3616202759E-01   0.6951874098E-03
   0.8248341607E+00  -0.1216573885E+01   0.2018792589E+00   0.1522235654E-02   0.4165703536E-01   0.1879255882E-02   0.0000000000E+00   0.0000000000E+00   0.0000000000E+00  -0.2192685378E+00  -0.1272839208E+01  -0.1800034605E+00  -0.1941151314E+00  -0.2275550684E-01   0.3347207865E-02
   0.8184024755E+00  -0.1410269403E+01   0.1285350883E-02   0.9009905313E-03   0.4326424670E-01   0.1285350883E-02   0.0000000000E+00   0.0000000000E+00   0.0000000000E+00  -0.4625945192E-01  -0.1054135652E+01  -0.6440519531E-02  -0.1636165280E+00  -0.4326387430E-01  -0.1210873719E-01
   0.8185374905E+00  -0.1409785646E+01   0.2023700359E+00   0.1036005517E-02   0.4374800411E-01   0.2370032927E-02   0.0000000000E+00   0.0000000000E+00   0.0000000000E+00  -0.1718599907E+00  -0.1173086585E+01  -0.1294185750E+00  -0.1719716849E+00  -0.2603892787E-01  -0.3575339212E-02
   0.8142026584E+00  -0.1602349446E+01   0.1829493924E-02   0.4643124298E-03   0.4523260355E-01   0.1829493924E-02   0.0000000000E+00   0.0000000000E+00   0.0000000000E+00  -0.7020371563E-01  -0.1024538534E+01  -0.2450428277E-01  -0.1389352277E+00  -0.4629238268E-01  -0.1287718313E-01
   0.8143300245E+00  -0.1601868062E+01   0.2028724314E+00   0.5916784727E-03   0.4571398774E-01   0.2872428420E-02   0.0000000000E+00   0.0000000000E+00   0.0000000000E+00  -0.1291146384E+00  -0.1085503598E+01  -0.8523697816E-01  -0.1465374777E+00  -0.2722450056E-01  -0.4121225883E-02
   0.8111087114E+00  -0.1794023253E+01   0.2370142569E-02   0.5615036741E-04   0.4709841659E-01   0.2370142569E-02   0.0000000000E+00   0.0000000000E+00   0.0000000000E+00  -0.1035682794E+00  -0.1014729819E+01  -0.5240674992E-01  -0.1117497428E+00  -0.4837635147E-01  -0.1154485656E-01
   0.8112289875E+00  -0.1793534279E+01   0.2033807241E+00   0.1764265471E-03   0.4758739081E-01   0.3380721111E-02   0.0000000000E+00   0.0000000000E+00   0.0000000000E+00  -0.9090118171E-01  -0.1010315763E+01  -0.4488746520E-01  -0.1196113435E+00  -0.2822256198E-01  -0.3571933900E-02
   0.8085911975E+00  -0.1985578610E+01   0.2904332132E-02  -0.3374115016E-03   0.4888861041E-01   0.2904332132E-02   0.0000000000E+00   0.0000000000E+00   0.0000000000E+00  -0.1429969764E+00  -0.1020049975E+01  -0.8516991202E-01  -0.8204598369E-01  -0.5097118500E-01  -0.8301784666E-02
   0.8087059405E+00  -0.1985074827E+01   0.2038938952E+00  -0.2226685282E-03   0.4939239272E-01   0.3893892229E-02   0.0000000000E+00   0.0000000000E+00   0.0000000000E+00  -0.7113743490E-01  -0.9611732536E+00  -0.2116394173E-01  -0.9078811291E-01  -0.2991589337E-01  -0.1995382733E-02
   0.8064024103E+00  -0.2177110842E+01   0.3433234411E-02  -0.7232176547E-03   0.5062419775E-01   0.3433234411E-02   0.0000000000E+00   0.0000000000E+00   0.0000000000E+00  -0.1885211620E+00  -0.1039630786E+01  -0.1225238623E+00  -0.4962418949E-01  -0.5588576621E-01  -0.3647800370E-02
   0.8065127311E+00  -0.2176586570E+01   0.2044128285E+00  -0.6128968640E-03   0.5114847047E-01   0.4412825476E-02   0.0000000000E+00   0.0000000000E+00   0.0000000000E+00  -0.6550081265E-01  -0.9337030345E+00  -0.9864064227E-02  -0.6011677348E-01  -0.3340550096E-01   0.3367221944E-03
   0.8044701470E+00  -0.2368636640E+01   0.3952407567E-02  -0.1108918981E-02   0.5232258987E-01   0.3952407567E-02   0.0000000000E+00   0.0000000000E+00   0.0000000000E+00  -0.2378285973E+00  -0.1069272547E+01  -0.1600701171E+00  -0.1428639941E-01  -0.6285890132E-01   0.2684712973E-02
   0.8045788790E+00  -0.2368086660E+01   0.2049353835E+00  -0.1000187032E-02   0.5287257027E-01   0.4935380462E-02   0.0000000000E+00   0.0000000000E+00   0.0000000000E+00  -0.8329327019E-01  -0.9357748367E+00  -0.1840237291E-01  -0.2736546940E-01  -0.3859274280E-01   0.3502111637E-02
   0.8028303595E+00  -0.2560123664E+01   0.4459351516E-02  -0.1502314473E-02   0.5399872558E-01   0.4459351516E-02   0.0000000000E+00   0.0000000000E+00   0.0000000000E+00  -0.2991820546E+00  -0.1115576819E+01  -0.2047930289E+00   0.2951740349E-01  -0.7043800578E-01   0.1090396483E-01
   0.8029428420E+00  -0.2559543160E+01   0.2054599486E+00  -0.1389832022E-02   0.5457922970E-01   0.5459945623E-02   0.0000000000E+00   0.0000000000E+00   0.0000000000E+00  -0.1157447843E+00  -0.9566610989E+00  -0.3658269631E-01   0.1080951345E-01  -0.4476171899E-01   0.7618984296E-02
   0.8015506769E+00  -0.2751500352E+01   0.4962491625E-02  -0.1925061136E-02   0.5566502838E-01   0.4962491625E-02   0.0000000000E+00   0.0000000000E+00   0.0000000000E+00  -0.3244202052E+00  -0.1130434195E+01  -0.2107712154E+00   0.7129107555E-01  -0.7124612259E-01   0.1226603883E-01
   0.8016813416E+00  -0.2750886071E+01   0.2059909089E+00  -0.1794396426E-02   0.5627930884E-01   0.5990905941E-02   0.0000000000E+00   0.0000000000E+00   0.0000000000E+00  -0.1762866334E+00  -0.1008219122E+01  -0.7884918387E-01   0.4759895315E-01  -0.4815020967E-01   0.7546635537E-02
   0.8006535303E+00  -0.2942669662E+01   0.5512878589E-02  -0.2313481656E-02   0.5733033808E-01   0.5512878589E-02   0.0000000000E+00   0.0000000000E+00   0.0000000000E+00  -0.2755169548E+00  -0.1078414918E+01  -0.1531614684E+00   0.1088515559E+00  -0.8585417705E-01   0.1201314347E-01
   0.8007928194E+00  -0.2942021143E+01   0.2065562388E+00  -0.2174192630E-02   0.5797885680E-01   0.6556235772E-02   0.0000000000E+00   0.0000000000E+00   0.0000000000E+00  -0.2542362306E+00  -0.1082113816E+01  -0.1467039968E+00   0.8218336338E-01  -0.6039045970E-01   0.7086087389E-02
   0.6394563772E+00  -0.8525213192E+00   0.3634415028E-03   0.1395271222E-02   0.3911445682E-01   0.3634415028E-03   0.0000000000E+00   0.0000000000E+00   0.0000000000E+00  -0.7578878719E+00  -0.1850577395E+01  -0.7908668344E+00  -0.3103484474E+00  -0.1156171420E+00   0.4687599378E-01
   0.6396892714E+00  -0.8518680453E+00   0.2013795983E+00   0.1628165386E-02   0.3976773074E-01   0.1379595330E-02   0.0000000000E+00   0.0000000000E+00   0.0000000000E+00   0.1240560860E+00  -0.9024847569E+00   0.1142801374E+00  -0.2819096951E+00  -0.7801285685E-01   0.2108776482E-01
   0.6276060800E+00  -0.1051725396E+01   0.9258988231E-03   0.7425409953E-03   0.4132568414E-01   0.9258988231E-03   0.0000000000E+00   0.0000000000E+00   0.0000000000E+00  -0.3950094407E+00  -0.1408710422E+01  -0.4255046578E+00  -0.2779664265E+00  -0.8198626312E-01   0.1324652125E-01
   0.6278000725E+00  -0.1051149318E+01   0.2018718394E+00   0.9365334698E-03   0.4190176237E-01   0.1871836397E-02   0.0000000000E+00   0.0000000000E+00   0.0000000000E+00   0.1999384783E+00  -0.7871602544E+00   0.1767795669E+00  -0.2605886068E+00  -0.5473940557E-01   0.7151307828E-02
   0.6203817350E+00  -0.1243700924E+01   0.1424707902E-02   0.2954230346E-03   0.4327898583E-01   0.1424707902E-02   0.0000000000E+00   0.0000000000E+00   0.0000000000E+00  -0.3002787786E+00  -0.1255075751E+01  -0.3219169596E+00  -0.2456280126E+00  -0.7602791699E-01   0.1238134170E-01
   0.6205456885E+00  -0.1243164458E+01   0.2023308749E+00   0.4593764770E-03   0.4381545204E-01   0.2330871855E-02   0.0000000000E+00   0.0000000000E+00   0.0000000000E+00   0.1771152616E+00  -0.7638631435E+00   0.1580488189E+00  -0.2302732532E+00  -0.4830924699E-01   0.7835515685E-02
   0.6158196317E+00  -0.1433317964E+01   0.1905679666E-02  -0.9232930049E-04   0.4507070649E-01   0.1905679666E-02   0.0000000000E+00   0.0000000000E+00   0.0000000000E+00  -0.2193715106E+00  -0.1116203917E+01  -0.2258215362E+00  -0.2023484074E+00  -0.6509385485E-01   0.5418789875E-02
   0.6159585881E+00  -0.1432797332E+01   0.2027853786E+00   0.4662706490E-04   0.4559133784E-01   0.2785375555E-02   0.0000000000E+00   0.0000000000E+00   0.0000000000E+00   0.1440844125E+00  -0.7515867735E+00   0.1351389352E+00  -0.1907602674E+00  -0.3989961445E-01   0.5034437847E-02
   0.6126247895E+00  -0.1622144749E+01   0.2390013669E-02  -0.4570825391E-03   0.4675622137E-01   0.2390013669E-02   0.0000000000E+00   0.0000000000E+00   0.0000000000E+00  -0.1820189718E+00  -0.1034736305E+01  -0.1767964605E+00  -0.1655029746E+00  -0.5778280245E-01   0.2389680635E-02
   0.6127433901E+00  -0.1621624313E+01   0.2032495664E+00  -0.3384818980E-03   0.4727665715E-01   0.3249563393E-02   0.0000000000E+00   0.0000000000E+00   0.0000000000E+00   0.1130987826E+00  -0.7462901858E+00   0.1126332161E+00  -0.1561530479E+00  -0.3428084418E-01   0.3757547155E-02
   0.6100849302E+00  -0.1810810458E+01   0.2888612647E-02  -0.8079617534E-03   0.4836618192E-01   0.2888612647E-02   0.0000000000E+00   0.0000000000E+00   0.0000000000E+00  -0.1468950731E+00  -0.9630851685E+00  -0.1326686199E+00  -0.1317138400E+00  -0.5278365610E-01   0.8625555783E-03
   0.6101871572E+00  -0.1810279212E+01   0.2037302124E+00  -0.7057347564E-03   0.4889742837E-01   0.3730209424E-02   0.0000000000E+00   0.0000000000E+00   0.0000000000E+00   0.9362269167E-01  -0.7353326715E+00   0.9975882788E-01  -0.1239934339E+00  -0.3062693303E-01   0.3115071927E-02
   0.6078679084E+00  -0.1999487669E+01   0.3403265955E-02  -0.1153159638E-02   0.4991457069E-01   0.3403265955E-02   0.0000000000E+00   0.0000000000E+00   0.0000000000E+00  -0.1135961031E+00  -0.8974729347E+00  -0.9115954974E-01  -0.1006359808E+00  -0.4930641158E-01  -0.3033653895E-03
   0.6079571530E+00  -0.1998937038E+01   0.2042294918E+00  -0.1063914990E-02   0.5046520221E-01   0.4229488787E-02   0.0000000000E+00   0.0000000000E+00   0.0000000000E+00   0.7799742635E-01  -0.7235732649E+00   0.9046408934E-01  -0.9349811510E-01  -0.2829523050E-01   0.2405083852E-02
   0.6058289185E+00  -0.2188189445E+01   0.3947116155E-02  -0.1498363478E-02   0.5140882486E-01   0.3947116155E-02   0.0000000000E+00   0.0000000000E+00   0.0000000000E+00  -0.6885826670E-01  -0.8238452547E+00  -0.4119298426E-01  -0.7060816558E-01  -0.5031016061E-01  -0.4404153005E-03
   0.6059068490E+00  -0.2187611879E+01   0.2047555462E+00  -0.1420432956E-02   0.5198639058E-01   0.4755543228E-02   0.0000000000E+00   0.0000000000E+00   0.0000000000E+00   0.7789933903E-01  -0.6995045767E+00   0.9392743556E-01  -0.6328803551E-01  -0.2896298897E-01   0.2018109523E-02
   0.6039507026E+00  -0.2376912798E+01   0.4514740441E-02  -0.1845753404E-02   0.5285147228E-01   0.4514740441E-02   0.0000000000E+00   0.0000000000E+00   0.0000000000E+00  -0.1356355077E-01  -0.7405026203E+00   0.1930936493E-01  -0.4081592071E-01  -0.5492709050E-01   0.8412849522E-03
   0.6040198783E+00  -0.2376300347E+01   0.2053062638E+00  -0.1776577741E-02   0.5346392326E-01   0.5306260829E-02   0.0000000000E+00   0.0000000000E+00   0.0000000000E+00   0.7650577021E-01  -0.6781172830E+00   0.9589965485E-01  -0.3254457200E-01  -0.3217977184E-01   0.2283375500E-02
   0.6022926547E+00  -0.2565642004E+01   0.5098739186E-02  -0.2200784260E-02   0.5424391617E-01   0.5098739186E-02   0.0000000000E+00   0.0000000000E+00   0.0000000000E+00   0.7800782239E-01  -0.6209582777E+00   0.1178191124E+00  -0.6342332152E-02  -0.6389132929E-01   0.1215440557E-01
   0.6023584443E+00  -0.2564985360E+01   0.2058773123E+00  -0.2134994734E-02   0.5490056021E-01   0.5877309295E-02   0.0000000000E+00   0.0000000000E+00   0.0000000000E+00   0.7870785143E-01  -0.6541914317E+00   0.1031860662E+00   0.1556920871E-02  -0.3848329795E-01   0.7690748655E-02
   0.6009452489E+00  -0.2754355035E+01   0.5664823849E-02  -0.2580986066E-02   0.5559174489E-01   0.5664823849E-02   0.0000000000E+00   0.0000000000E+00   0.0000000000E+00   0.5700614185E-01  -0.6151125337E+00   0.1143747238E+00   0.3156487609E-01  -0.7176132919E-01   0.1513356142E-01
   0.6010238221E+00  -0.2753644252E+01   0.2064514497E+00  -0.2502412887E-02   0.5630252815E-01   0.6451446692E-02   0.0000000000E+00   0.0000000000E+00   0.0000000000E+00   0.4379436264E-01  -0.6676774915E+00   0.8287694317E-01   0.3995689187E-01  -0.4560680622E-01   0.7835641310E-02
   0.6000415865E+00  -0.2943084754E+01   0.6323477326E-02  -0.2965610514E-02   0.5691524609E-01   0.6323477326E-02   0.0000000000E+00   0.0000000000E+00   0.0000000000E+00   0.1092054509E+00  -0.5630501995E+00   0.1547196096E+00   0.7127631219E-01  -0.8547419204E-01   0.1250512301E-01
   0.6001309020E+00  -0.2942315483E+01   0.2070875929E+00  -0.2876295013E-02   0.5768451723E-01   0.7087589932E-02   0.0000000000E+00   0.0000000000E+00   0.0000000000E+00   0.7844847664E-01  -0.6333752244E+00   0.1068841746E+00   0.8083122888E-01  -0.5721082971E-01   0.5654495170E-02
   0.3992166437E+00  -0.2757137819E+01   0.5906049600E-02  -0.3181167347E-02   0.5623241133E-01   0.5906049600E-02   0.0000000000E+00   0.0000000000E+00   0.0000000000E+00  -0.5914288755E+00  -0.1218680974E+01  -0.5440341271E+00  -0.5431492982E-01  -0.1829235182E-01  -0.2909697923E-01
   0.3989286563E+00  -0.2942569358E+01   0.6591063912E-02  -0.3567562722E-02   0.5743064206E-01   0.6591063912E-02   0.0000000000E+00   0.0000000000E+00   0.0000000000E+00  -0.3530778683E+00  -0.9699911268E+00  -0.3149198406E+00  -0.3687836072E-01  -0.1109530036E-01  -0.3662483608E-01
   0.3992417685E+00  -0.2756613393E+01   0.2066216127E+00  -0.3156042500E-02   0.5675683652E-01   0.6621609749E-02   0.0000000000E+00   0.0000000000E+00   0.0000000000E+00   0.1884613590E+00  -0.4626752205E+00   0.2180861151E+00  -0.3308798360E-01  -0.1049837570E-01  -0.1773968406E-01
   0.3989627590E+00  -0.2942012475E+01   0.2072808931E+00  -0.3533459979E-02   0.5798752510E-01   0.7280890130E-02   0.0000000000E+00   0.0000000000E+00   0.0000000000E+00   0.3457441840E+00  -0.3006865539E+00   0.3666398963E+00  -0.1232118521E-01  -0.8316370135E-02  -0.2354251313E-01
   0.1934912881E+00  -0.2757704218E+01   0.5944151473E-02  -0.3777465891E-02   0.5699114182E-01   0.5944151473E-02   0.0000000000E+00   0.0000000000E+00   0.0000000000E+00  -0.1797033001E+00  -0.8090284607E+00  -0.1408315225E+00  -0.1117398328E+00   0.4170297690E-01  -0.2932845504E-01
   0.1942683202E+00  -0.2941826791E+01   0.6525857396E-02  -0.4137720794E-02   0.5817320916E-01   0.6525857396E-02   0.0000000000E+00   0.0000000000E+00   0.0000000000E+00  -0.1402812150E+00  -0.7472844634E+00  -0.8035530111E-01  -0.1194463936E+00   0.6666460678E-01  -0.2402597457E-01
   0.1934833689E+00  -0.2757218100E+01   0.2066495205E+00  -0.3785385083E-02   0.5747726040E-01   0.6649517494E-02   0.0000000000E+00   0.0000000000E+00   0.0000000000E+00   0.2481462851E+00  -0.3933263409E+00   0.2805129213E+00  -0.1008725391E+00   0.2777207771E-01  -0.1721970123E-01
   0.1942628537E+00  -0.2941319910E+01   0.2072520977E+00  -0.4143187328E-02   0.5868008962E-01   0.7252094735E-02   0.0000000000E+00   0.0000000000E+00   0.0000000000E+00   0.3496623223E+00  -0.2746079589E+00   0.4017281810E+00  -0.1065246098E+00   0.4318665970E-01  -0.1431594462E-01
   0.4001619218E+00  -0.2571518384E+01   0.5318607583E-02  -0.2857029155E-02   0.5498675613E-01   0.5318607583E-02   0.0000000000E+00   0.0000000000E+00   0.0000000000E+00  -0.5973767287E+00  -0.1258545612E+01  -0.5685237062E+00  -0.6887736247E-01  -0.1590304897E-01  -0.2057080192E-01
   0.4001841484E+00  -0.2571011119E+01   0.2060310403E+00  -0.2834802575E-02   0.5549402052E-01   0.6031037341E-02   0.0000000000E+00   0.0000000000E+00   0.0000000000E+00   0.3102817766E+00  -0.3671769211E+00   0.3250908607E+00  -0.5023425609E-01  -0.7773667361E-02  -0.1036311278E-01
   0.1941562117E+00  -0.2573344691E+01   0.5359390841E-02  -0.3505993277E-02   0.5576468890E-01   0.5359390841E-02   0.0000000000E+00   0.0000000000E+00   0.0000000000E+00  -0.2100795449E+00  -0.8662592695E+00  -0.1865500889E+00  -0.1015786030E+00   0.3551576892E-01  -0.2754561172E-01
   0.1941545061E+00  -0.2572868330E+01   0.2060604696E+00  -0.3507698881E-02   0.5624104964E-01   0.6060466551E-02   0.0000000000E+00   0.0000000000E+00   0.0000000000E+00   0.2776558471E+00  -0.3862994343E+00   0.2963144448E+00  -0.9241348028E-01   0.2341551638E-01  -0.1477829966E-01
   0.4014618396E+00  -0.2385823734E+01   0.4750371572E-02  -0.2541214439E-02   0.5370091618E-01   0.4750371572E-02   0.0000000000E+00   0.0000000000E+00   0.0000000000E+00  -0.5031589527E+00  -0.1185737902E+01  -0.4823128287E+00  -0.7715379901E-01  -0.1649328880E-01  -0.1944166132E-01
   0.4014922047E+00  -0.2385330279E+01   0.2054689893E+00  -0.2510849331E-02   0.5419437068E-01   0.5468986317E-02   0.0000000000E+00   0.0000000000E+00   0.0000000000E+00   0.2561811121E+00  -0.4425359987E+00   0.2640376104E+00  -0.6028886961E-01  -0.8008767280E-02  -0.8149886509E-02
   0.1952308889E+00  -0.2389070912E+01   0.4816854890E-02  -0.3219468092E-02   0.5451114835E-01   0.4816854890E-02   0.0000000000E+00   0.0000000000E+00   0.0000000000E+00  -0.2065265011E+00  -0.8763782038E+00  -0.1914924743E+00  -0.8504642974E-01   0.2356067316E-01  -0.1809492229E-01
   0.1952350506E+00  -0.2388604614E+01   0.2055144479E+00  -0.3215306447E-02   0.5497744613E-01   0.5514444941E-02   0.0000000000E+00   0.0000000000E+00   0.0000000000E+00   0.2413257090E+00  -0.4398284361E+00   0.2495782581E+00  -0.7760520644E-01   0.1543777868E-01  -0.8597232041E-02
   0.4029570491E+00  -0.2200103737E+01   0.4222397976E-02  -0.2231361910E-02   0.5238440267E-01   0.4222397976E-02   0.0000000000E+00   0.0000000000E+00   0.0000000000E+00  -0.4093001781E+00  -0.1110530489E+01  -0.3969514493E+00  -0.8979116332E-01  -0.2027013274E-01  -0.1446309104E-01
   0.4029997247E+00  -0.2199626201E+01   0.2049435061E+00  -0.2188686268E-02   0.5286193900E-01   0.4943503075E-02   0.0000000000E+00   0.0000000000E+00   0.0000000000E+00   0.2409010420E+00  -0.4774163366E+00   0.2407483929E+00  -0.7423741823E-01  -0.1035395930E-01  -0.4735985960E-02
   0.1964861609E+00  -0.2205118115E+01   0.4337297232E-02  -0.2935871057E-02   0.5324990527E-01   0.4337297232E-02   0.0000000000E+00   0.0000000000E+00   0.0000000000E+00  -0.1968572165E+00  -0.8725436578E+00  -0.1921057465E+00  -0.8005509287E-01   0.9679070494E-02  -0.9026327743E-02
   0.1964980190E+00  -0.2204668391E+01   0.2050200673E+00  -0.2924012952E-02   0.5369962890E-01   0.5020064282E-02   0.0000000000E+00   0.0000000000E+00   0.0000000000E+00   0.2211251760E+00  -0.4712555600E+00   0.2162849209E+00  -0.7316156545E-01   0.6548602372E-02  -0.3322652242E-02
   0.4045774352E+00  -0.2014383693E+01   0.3729188935E-02  -0.1923589826E-02   0.5104217733E-01   0.3729188935E-02   0.0000000000E+00   0.0000000000E+00   0.0000000000E+00  -0.3466284753E+00  -0.1064862334E+01  -0.3428756681E+00  -0.1070330088E+00  -0.2760760217E-01  -0.9696453653E-02
   0.4046340702E+00  -0.2013924875E+01   0.2044505167E+00  -0.1866954772E-02   0.5150099472E-01   0.4450513682E-02   0.0000000000E+00   0.0000000000E+00   0.0000000000E+00   0.2038647291E+00  -0.5327768926E+00   0.1949434450E+00  -0.9134966806E-01  -0.1502692015E-01  -0.1804895447E-02
   0.1988946448E+00  -0.2024682974E+01   0.3931632526E-02  -0.2653961226E-02   0.5201389560E-01   0.3931632526E-02   0.0000000000E+00   0.0000000000E+00   0.0000000000E+00  -0.1885612830E+00  -0.8648896381E+00  -0.1986593190E+00  -0.8343930663E-01  -0.6955678479E-02   0.7489172731E-03
   0.1989147801E+00  -0.2024256831E+01   0.2045852108E+00  -0.2633825911E-02   0.5244003873E-01   0.4585207822E-02   0.0000000000E+00   0.0000000000E+00   0.0000000000E+00   0.2132822737E+00  -0.4854682560E+00   0.1905167457E+00  -0.7650469297E-01  -0.3853049056E-02   0.2167633213E-02
   0.4069178963E+00  -0.1831046170E+01   0.3288953133E-02  -0.1624796653E-02   0.4968994028E-01   0.3288953133E-02   0.0000000000E+00   0.0000000000E+00   0.0000000000E+00  -0.2924596599E+00  -0.1029606369E+01  -0.3029024054E+00  -0.1302188979E+00  -0.3893647632E-01  -0.6182398931E-02
   0.4069901384E+00  -0.1830607880E+01   0.2040010794E+00  -0.1552554589E-02   0.5012822978E-01   0.4001076386E-02   0.0000000000E+00   0.0000000000E+00   0.0000000000E+00   0.1902680486E+00  -0.5663787433E+00   0.1668885415E+00  -0.1126650984E+00  -0.2223820787E-01   0.7170271290E-04
   0.2000933309E+00  -0.1840658442E+01   0.3593919000E-02  -0.2386777054E-02   0.5077717807E-01   0.3593919000E-02   0.0000000000E+00   0.0000000000E+00   0.0000000000E+00  -0.1653760462E+00  -0.8407474341E+00  -0.2004212836E+00  -0.9504274777E-01  -0.2409486952E-01   0.7903793632E-02
   0.2001232678E+00  -0.1840264487E+01   0.2041966815E+00  -0.2356840161E-02   0.5117113279E-01   0.4196678525E-02   0.0000000000E+00   0.0000000000E+00   0.0000000000E+00   0.2410087445E+00  -0.4625761310E+00   0.1903084858E+00  -0.8702601891E-01  -0.1451310608E-01   0.5771676137E-02
   0.4085172579E+00  -0.1644262066E+01   0.2864616505E-02  -0.1322283087E-02   0.4829324376E-01   0.2864616505E-02   0.0000000000E+00   0.0000000000E+00   0.0000000000E+00  -0.2586458390E+00  -0.1015389008E+01  -0.2839285753E+00  -0.1599889823E+00  -0.5322154164E-01  -0.5899897686E-02
   0.4086091982E+00  -0.1643846499E+01   0.2035666397E+00  -0.1230342757E-02   0.4870881147E-01   0.3566636711E-02   0.0000000000E+00   0.0000000000E+00   0.0000000000E+00   0.1533597637E+00  -0.6234706582E+00   0.1148153296E+00  -0.1384458268E+00  -0.3156418573E-01   0.2903129035E-04
   0.2028277200E+00  -0.1662668320E+01   0.3324317454E-02  -0.2122464020E-02   0.4960622951E-01   0.3324317454E-02   0.0000000000E+00   0.0000000000E+00   0.0000000000E+00  -0.1398926121E+00  -0.8082876799E+00  -0.2035785198E+00  -0.1133563105E+00  -0.4300681363E-01   0.1135806576E-01
   0.2028702200E+00  -0.1662313707E+01   0.2038628976E+00  -0.2079964027E-02   0.4996084268E-01   0.3862894623E-02   0.0000000000E+00   0.0000000000E+00   0.0000000000E+00   0.2846353825E+00  -0.4192424106E+00   0.2015699466E+00  -0.1033595435E+00  -0.2641266023E-01   0.7337602142E-02
   0.4108996488E+00  -0.1459858776E+01   0.2478431389E-02  -0.1021316174E-02   0.4688370441E-01   0.2478431389E-02   0.0000000000E+00   0.0000000000E+00   0.0000000000E+00  -0.2441789284E+00  -0.1024800495E+01  -0.2888026108E+00  -0.2006324543E+00  -0.7032574647E-01  -0.9868310614E-03
   0.4110165233E+00  -0.1459465907E+01   0.2031653799E+00  -0.9044416744E-03   0.4727657338E-01   0.3165376947E-02   0.0000000000E+00   0.0000000000E+00   0.0000000000E+00   0.1289909885E+00  -0.6724364686E+00   0.7040278386E-01  -0.1728938868E+00  -0.4310996398E-01   0.2698553602E-02
   0.2045263594E+00  -0.1482820761E+01   0.3103444890E-02  -0.1864498583E-02   0.4847000899E-01   0.3103444890E-02   0.0000000000E+00   0.0000000000E+00   0.0000000000E+00  -0.1081924287E+00  -0.7678913478E+00  -0.2067856269E+00  -0.1439440287E+00  -0.6181509804E-01   0.1008578385E-01
   0.2045843290E+00  -0.1482516929E+01   0.2035636346E+00  -0.1806529035E-02   0.4877384090E-01   0.3563631560E-02   0.0000000000E+00   0.0000000000E+00   0.0000000000E+00   0.3528319445E+00  -0.3513973424E+00   0.2302355091E+00  -0.1303361732E+00  -0.3853241742E-01   0.6206543552E-02
   0.4138009912E+00  -0.1275222096E+01   0.2136999862E-02  -0.7194807826E-03   0.4543670382E-01   0.2136999862E-02   0.0000000000E+00   0.0000000000E+00   0.0000000000E+00  -0.2227637287E+00  -0.1033189111E+01  -0.2954418835E+00  -0.2517964365E+00  -0.8929894755E-01   0.1916358511E-02
   0.4139498371E+00  -0.1274850729E+01   0.2027973941E+00  -0.5706349381E-03   0.4580807051E-01   0.2797391115E-02   0.0000000000E+00   0.0000000000E+00   0.0000000000E+00   0.1374590352E+00  -0.6919734223E+00   0.5132701898E-01  -0.2144200794E+00  -0.5650737720E-01   0.4354711877E-02
   0.2052271443E+00  -0.1296051857E+01   0.2919569443E-02  -0.1615501673E-02   0.4734659331E-01   0.2919569443E-02   0.0000000000E+00   0.0000000000E+00   0.0000000000E+00  -0.5728778845E-01  -0.7086975477E+00  -0.1983898343E+00  -0.1839958864E+00  -0.7843898149E-01   0.7871369588E-02
   0.2053076822E+00  -0.1295814546E+01   0.2032866888E+00  -0.1534963778E-02   0.4758390363E-01   0.3286685769E-02   0.0000000000E+00   0.0000000000E+00   0.0000000000E+00   0.3959213241E+00  -0.3105747411E+00   0.2255887329E+00  -0.1643078524E+00  -0.5011331174E-01   0.5335579556E-02
   0.4177875029E+00  -0.1090363106E+01   0.1848333524E-02  -0.3891780585E-03   0.4394690448E-01   0.1848333524E-02   0.0000000000E+00   0.0000000000E+00   0.0000000000E+00  -0.2585264721E+00  -0.1100285532E+01  -0.3668721645E+00  -0.3085587489E+00  -0.1161068332E+00   0.2214484177E-01
   0.4179787123E+00  -0.1090007726E+01   0.2024678770E+00  -0.1979686630E-03   0.4430228407E-01   0.2467873967E-02   0.0000000000E+00   0.0000000000E+00   0.0000000000E+00   0.1646315599E+00  -0.6956623693E+00   0.4197622442E-01  -0.2589558138E+00  -0.7554471122E-01   0.1604019516E-01
   0.2078521097E+00  -0.1118064469E+01   0.2814689202E-02  -0.1363918267E-02   0.4631978064E-01   0.2814689202E-02   0.0000000000E+00   0.0000000000E+00   0.0000000000E+00  -0.4251018511E-01  -0.6890575051E+00  -0.2362460145E+00  -0.2314036364E+00  -0.9063794580E-01   0.9097220157E-02
   0.2079633631E+00  -0.1117905645E+01   0.2030713778E+00  -0.1252664850E-02   0.4647860487E-01   0.3071374827E-02   0.0000000000E+00   0.0000000000E+00   0.0000000000E+00   0.4905388062E+00  -0.2243212256E+00   0.2602584841E+00  -0.2022210723E+00  -0.5981228575E-01   0.6937503588E-02
   0.4236521739E+00  -0.9100866558E+00   0.1740320763E-02   0.4279790141E-04   0.4245874818E-01   0.1740320763E-02   0.0000000000E+00   0.0000000000E+00   0.0000000000E+00  -0.1950710706E+00  -0.1063229017E+01  -0.3689677959E+00  -0.3587144467E+00  -0.1662210953E+00   0.5847939955E-01
   0.4238996301E+00  -0.9097318632E+00   0.2022551599E+00   0.2902540874E-03   0.4281354077E-01   0.2255156879E-02   0.0000000000E+00   0.0000000000E+00   0.0000000000E+00   0.2667394659E+00  -0.5943618360E+00   0.9092271366E-01  -0.2873242554E+00  -0.1094085938E+00   0.3716672012E-01
   0.2114504888E+00  -0.9520003649E+00   0.2803472636E-02  -0.1075221186E-02   0.4540719106E-01   0.2803472636E-02   0.0000000000E+00   0.0000000000E+00   0.0000000000E+00   0.6179970293E-01  -0.5732886356E+00  -0.1936191452E+00  -0.2611444382E+00  -0.8219968881E-01   0.1240522135E-01
   0.2116101998E+00  -0.9519290552E+00   0.2029256603E+00  -0.9155102188E-03   0.4547850076E-01   0.2925657282E-02   0.0000000000E+00   0.0000000000E+00   0.0000000000E+00   0.4560856065E+00  -0.2577862314E+00   0.1590006935E+00  -0.2125136113E+00  -0.5878697401E-01   0.1284898280E-01
   0.4268472224E+00  -0.7435306389E+00   0.1678202497E-02   0.6021884308E-03   0.4115604609E-01   0.1678202497E-02   0.0000000000E+00   0.0000000000E+00   0.0000000000E+00  -0.9660562149E-01  -0.9686131969E+00  -0.3313055344E+00  -0.4409961599E+00  -0.2047407469E+00   0.1272406667E-01
   0.4271493310E+00  -0.7431582995E+00   0.2020777238E+00   0.9042970071E-03   0.4152838552E-01   0.2077720791E-02   0.0000000000E+00   0.0000000000E+00   0.0000000000E+00   0.9001797244E+00   0.2133975337E-02   0.6490546669E+00  -0.3746695789E+00  -0.1372181623E+00   0.1082140643E-02
   0.2128327222E+00  -0.8082503797E+00   0.2838177833E-02  -0.7182177679E-03   0.4467968933E-01   0.2838177833E-02   0.0000000000E+00   0.0000000000E+00   0.0000000000E+00  -0.1683983883E+00  -0.8400869746E+00  -0.5054424085E+00  -0.3004774299E+00  -0.6293940742E-01  -0.2588001710E-01
   0.2130411460E+00  -0.8082694139E+00   0.2028309616E+00  -0.5097940303E-03   0.4466065511E-01   0.2830958590E-02   0.0000000000E+00   0.0000000000E+00   0.0000000000E+00   0.8805958179E+00   0.1099361093E+00   0.4878629937E+00  -0.2523223518E+00  -0.5022678191E-01  -0.1029989780E-01
   0.1864390929E+00  -0.6819975756E+00   0.2783846382E-02  -0.6578161051E-03   0.4429074336E-01   0.2783846382E-02   0.0000000000E+00   0.0000000000E+00   0.0000000000E+00   0.9549219039E+00   0.2145453938E+00   0.5196286955E+00  -0.3350215633E+00  -0.7434599712E-01  -0.7936318360E-01
   0.1865535644E+00  -0.6821513375E+00   0.2026627322E+00  -0.5433445748E-03   0.4413698151E-01   0.2662729189E-02   0.0000000000E+00   0.0000000000E+00   0.0000000000E+00   0.3082303131E+00  -0.5294656284E+00  -0.1642012357E+00  -0.3075026503E+00  -0.5649982503E-01  -0.4518508612E-01
   0.3657124186E+00  -0.6140206648E+00   0.1682626761E-02   0.6883286140E-03   0.4115674916E-01   0.1682626761E-02   0.0000000000E+00   0.0000000000E+00   0.0000000000E+00   0.2027383916E+01   0.9964160710E+00   0.1626166726E+01  -0.4406867556E+00  -0.2525036304E+00  -0.1583350050E+00
   0.3658154589E+00  -0.6138426929E+00   0.2019320855E+00   0.7913688581E-03   0.4133472113E-01   0.1932082498E-02   0.0000000000E+00   0.0000000000E+00   0.0000000000E+00   0.2981530423E+00  -0.7899735355E+00  -0.1058158587E+00  -0.4348084501E+00  -0.1610476759E+00  -0.1037620907E+00
   0.1803737987E+01   0.8724300342E+00  -0.1983072266E-02   0.8558497354E-02   0.1569170515E-01  -0.1983072266E-02   0.0000000000E+00   0.0000000000E+00   0.0000000000E+00   0.1382500101E+00  -0.8954198661E+00   0.6421825730E-01  -0.7497557651E-01   0.4295959069E-03  -0.2681259512E-01
   0.1814635465E+01   0.6610844805E+00  -0.1735000183E-02   0.9662814681E-02   0.1784855847E-01  -0.1735000183E-02   0.0000000000E+00   0.0000000000E+00   0.0000000000E+00   0.1140923047E+00  -0.9359922879E+00   0.1175120707E-01  -0.9101291065E-01  -0.8238649954E-02   0.4585989155E-02
   0.2010773009E+01   0.6614580275E+00  -0.1650334819E-02   0.1077300872E-01   0.1840598551E-01  -0.1650334819E-02   0.0000000000E+00   0.0000000000E+00   0.0000000000E+00   0.1626663182E+00  -0.8435310054E+00   0.3588631248E-01  -0.5398016576E-01   0.4602046563E-02  -0.1189011509E-01
   0.2009681770E+01   0.8728964712E+00  -0.2003471040E-02   0.9681769503E-02   0.1636562616E-01  -0.2003471040E-02   0.0000000000E+00   0.0000000000E+00   0.0000000000E+00   0.1345449056E+00  -0.8718847398E+00   0.4959902997E-01  -0.5313494832E-01   0.4029536553E-02  -0.3731555526E-01
   0.1803790408E+01   0.8725692469E+00   0.1989019487E+00   0.8610918328E-02   0.1583091789E-01  -0.1098054320E-02   0.0000000000E+00   0.0000000000E+00   0.0000000000E+00   0.8808897088E-01  -0.9486491087E+00   0.1401535983E-01  -0.5947006858E-01   0.1811487390E-02  -0.1764688079E-01
   0.1814579679E+01   0.6612309354E+00   0.1991092602E+00   0.9607028993E-02   0.1799501340E-01  -0.8907428390E-03   0.0000000000E+00   0.0000000000E+00   0.0000000000E+00   0.1501988095E+00  -0.9044559505E+00   0.4625308767E-01  -0.6611908527E-01  -0.5393655610E-02   0.1593610163E-02
   0.2010723464E+01   0.6616161145E+00   0.1991015831E+00   0.1072346376E-01   0.1856407246E-01  -0.8984199353E-03   0.0000000000E+00   0.0000000000E+00   0.0000000000E+00   0.1959114821E+00  -0.8151310800E+00   0.6760615387E-01  -0.3552491901E-01   0.3545726349E-02  -0.9821640420E-02
   0.2009739210E+01   0.8730476972E+00   0.1988322611E+00   0.9739209929E-02   0.1651685224E-01  -0.1167741920E-02   0.0000000000E+00   0.0000000000E+00   0.0000000000E+00   0.1124378984E+00  -0.8987984357E+00   0.2613654375E-01  -0.4102571983E-01   0.4841365609E-02  -0.2565528736E-01
   0.1825747840E+01   0.4496639765E+00  -0.1712514291E-02   0.1069842976E-01   0.1999405948E-01  -0.1712514291E-02   0.0000000000E+00   0.0000000000E+00   0.0000000000E+00  -0.2565731626E-01  -0.1042858543E+01  -0.7949235564E-01  -0.8323454120E-01  -0.6396823501E-02   0.3288353856E-01
   0.2011682547E+01   0.4495811482E+00  -0.1496101372E-02   0.1168254708E-01   0.2039244918E-01  -0.1496101372E-02   0.0000000000E+00   0.0000000000E+00   0.0000000000E+00   0.9377230387E-01  -0.8680096988E+00  -0.6160773722E-02  -0.3993519243E-01   0.1435603802E-01   0.1451317612E-01
   0.1825585531E+01   0.4498268344E+00   0.1991943099E+00   0.1053612052E-01   0.2015691740E-01  -0.8056931153E-03   0.0000000000E+00   0.0000000000E+00   0.0000000000E+00   0.5090504067E-01  -0.9818903254E+00  -0.1172403180E-01  -0.6674781141E-01  -0.8200101833E-02   0.1933012016E-01
   0.2011540544E+01   0.4497531148E+00   0.1992644487E+00   0.1154054363E-01   0.2056441578E-01  -0.7355542870E-03   0.0000000000E+00   0.0000000000E+00   0.0000000000E+00   0.1739757719E+00  -0.8014705384E+00   0.6733335782E-01  -0.3031661040E-01   0.5320106263E-02   0.7247029802E-02
   0.1833236324E+01   0.2394738007E+00  -0.1708913829E-02   0.1142488429E-01   0.2209327672E-01  -0.1708913829E-02   0.0000000000E+00   0.0000000000E+00   0.0000000000E+00  -0.1110483280E+00  -0.1087799053E+01  -0.1038857184E+00  -0.5179213730E-01   0.4671482120E-02   0.2186244512E-01
   0.2012288168E+01   0.2389419888E+00  -0.1390459773E-02   0.1228816793E-01   0.2230084581E-01  -0.1390459773E-02   0.0000000000E+00   0.0000000000E+00   0.0000000000E+00   0.6185902145E-01  -0.8514182000E+00   0.5487017846E-02  -0.2519710813E-01   0.3286629608E-01   0.1066379430E-01
   0.1833031378E+01   0.2396698834E+00   0.1992786712E+00   0.1121993841E-01   0.2228935939E-01  -0.7213317707E-03   0.0000000000E+00   0.0000000000E+00   0.0000000000E+00  -0.7729609376E-01  -0.1080590548E+01  -0.8509062081E-01  -0.4586439887E-01  -0.6884081460E-02   0.1326550864E-01
   0.2012116425E+01   0.2391434563E+00   0.1994086646E+00   0.1211642461E-01   0.2250231327E-01  -0.5913383601E-03   0.0000000000E+00   0.0000000000E+00   0.0000000000E+00   0.1556234565E+00  -0.7809494295E+00   0.8769035443E-01  -0.2336689254E-01   0.1047508498E-01   0.6174082973E-02
   0.1596530721E+01   0.8722647393E+00  -0.1930262587E-02   0.7398050791E-02   0.1532071432E-01  -0.1930262587E-02   0.0000000000E+00   0.0000000000E+00   0.0000000000E+00   0.1465548375E+00  -0.9230847138E+00   0.6864973309E-01  -0.9861035714E-01  -0.4319650203E-02  -0.3648697532E-01
   0.1617952068E+01   0.6608151659E+00  -0.1713631800E-02   0.8516267916E-02   0.1756487887E-01  -0.1713631800E-02   0.0000000000E+00   0.0000000000E+00   0.0000000000E+00   0.9056838818E-01  -0.1005220086E+01  -0.1401534998E-01  -0.1329379935E+00  -0.2524047676E-01   0.4477324730E-02
   0.1596583961E+01   0.8723554455E+00   0.1989830300E+00   0.7451290669E-02   0.1541142054E-01  -0.1016972978E-02   0.0000000000E+00   0.0000000000E+00   0.0000000000E+00   0.1004914815E+00  -0.9671268062E+00   0.2520708610E-01  -0.7995007592E-01  -0.1019180621E-02  -0.2261411667E-01
   0.1617889897E+01   0.6609121150E+00   0.1991716587E+00   0.8454097481E-02   0.1766182803E-01  -0.8283443397E-03   0.0000000000E+00   0.0000000000E+00   0.0000000000E+00   0.2110314883E+00  -0.8892958500E+00   0.1046855640E+00  -0.1006138193E+00  -0.1587982209E-01   0.2199878479E-02
   0.1639158260E+01   0.4493998400E+00  -0.1791250931E-02   0.9699590154E-02   0.1981083700E-01  -0.1791250931E-02   0.0000000000E+00   0.0000000000E+00   0.0000000000E+00  -0.7914542626E-01  -0.1135664387E+01  -0.1118929130E+00  -0.1329363780E+00  -0.3212912213E-01   0.3973824846E-01
   0.1638968183E+01   0.4495220443E+00   0.1991966776E+00   0.9509512723E-02   0.1993304129E-01  -0.8033253998E-03   0.0000000000E+00   0.0000000000E+00   0.0000000000E+00   0.9142292915E-01  -0.9876634314E+00   0.4606989767E-01  -0.1084124446E+00  -0.2389327322E-01   0.2397632682E-01
   0.1654466866E+01   0.2386260579E+00  -0.1863460021E-02   0.1056980552E-01   0.2202422394E-01  -0.1863460021E-02   0.0000000000E+00   0.0000000000E+00   0.0000000000E+00  -0.1328180817E+00  -0.1141690253E+01  -0.8650746707E-01  -0.8151993714E-01  -0.2693675248E-01   0.2613050792E-01
   0.1654217538E+01   0.2387990131E+00   0.1992346350E+00   0.1032047822E-01   0.2219717910E-01  -0.7653680371E-03   0.0000000000E+00   0.0000000000E+00   0.0000000000E+00  -0.3772366090E-01  -0.1085157987E+01  -0.1212437432E-01  -0.7085606980E-01  -0.2566661156E-01   0.1602154833E-01
   0.1387309231E+01   0.8721537373E+00  -0.1850917865E-02   0.6182831428E-02   0.1504383328E-01  -0.1850917865E-02   0.0000000000E+00   0.0000000000E+00   0.0000000000E+00   0.1926451439E+00  -0.9053744690E+00   0.1042942332E+00  -0.7206302708E-01  -0.3620579344E-02  -0.5535898483E-01
   0.1420358165E+01   0.6596506705E+00  -0.1642396533E-02   0.7319314897E-02   0.1737712548E-01  -0.1642396533E-02   0.0000000000E+00   0.0000000000E+00   0.0000000000E+00   0.6104617891E-01  -0.1072183626E+01  -0.5559067667E-01  -0.1369850145E+00  -0.2638380603E-01   0.3182080561E-02
   0.1387373772E+01   0.8721892276E+00   0.1990703909E+00   0.6247371938E-02   0.1507932363E-01  -0.9296120850E-03   0.0000000000E+00   0.0000000000E+00   0.0000000000E+00   0.1173529226E+00  -0.9701413633E+00   0.3652488817E-01  -0.5363709749E-01  -0.1081230625E-02  -0.3278684410E-01
   0.1420289214E+01   0.6596874514E+00   0.1992559842E+00   0.7250364080E-02   0.1741390643E-01  -0.7440188317E-03   0.0000000000E+00   0.0000000000E+00   0.0000000000E+00   0.2925959207E+00  -0.8426348048E+00   0.1751633155E+00  -0.9884161897E-01  -0.1712861013E-01   0.2536739629E-02
   0.1452428362E+01   0.4478862519E+00  -0.1829178336E-02   0.8691331554E-02   0.1971399088E-01  -0.1829178336E-02   0.0000000000E+00   0.0000000000E+00   0.0000000000E+00  -0.2050147469E+00  -0.1291886395E+01  -0.2231226463E+00  -0.1584625940E+00  -0.3421918015E-01   0.4766696330E-01
   0.1452197273E+01   0.4479560657E+00   0.1992172226E+00   0.8460242876E-02   0.1978380467E-01  -0.7827803835E-03   0.0000000000E+00   0.0000000000E+00   0.0000000000E+00   0.1587135413E+00  -0.9590315246E+00   0.1225761869E+00  -0.1266587988E+00  -0.2562720362E-01   0.2983992938E-01
   0.1476246571E+01   0.2371840883E+00  -0.1982857910E-02   0.9729360767E-02   0.2201096329E-01  -0.1982857910E-02   0.0000000000E+00   0.0000000000E+00   0.0000000000E+00  -0.2571641328E+00  -0.1286161201E+01  -0.1750260331E+00  -0.9903233280E-01  -0.3242432639E-01   0.3041650806E-01
   0.1475932727E+01   0.2373265481E+00   0.1992060041E+00   0.9415517457E-02   0.2215342313E-01  -0.7939989022E-03   0.0000000000E+00   0.0000000000E+00   0.0000000000E+00  -0.8136545888E-02  -0.1092425530E+01   0.4392139400E-01  -0.8366642274E-01  -0.2934225164E-01   0.1911115865E-01
   0.1173904465E+01   0.8715559075E+00  -0.1780747526E-02   0.4897285283E-02   0.1471148246E-01  -0.1780747526E-02   0.0000000000E+00   0.0000000000E+00   0.0000000000E+00   0.2540753228E+00  -0.8862775752E+00   0.1456662555E+00  -0.3716522058E-01   0.1060486940E-01  -0.7716952760E-01
   0.1221775398E+01   0.6560225321E+00  -0.1589439366E-02   0.6070237742E-02   0.1718108207E-01  -0.1589439366E-02   0.0000000000E+00   0.0000000000E+00   0.0000000000E+00   0.3124121134E-01  -0.1166191444E+01  -0.1109781170E+00  -0.1411125576E+00  -0.2344274984E-01   0.1594789251E-02
   0.1173998270E+01   0.8715315720E+00   0.1991434553E+00   0.4991089778E-02   0.1468714700E-01  -0.8565476698E-03   0.0000000000E+00   0.0000000000E+00   0.0000000000E+00   0.1621616078E+00  -0.9553365108E+00   0.6823513195E-01  -0.1847390130E-01   0.7113682527E-02  -0.4416965891E-01
   0.1221703391E+01   0.6559871231E+00   0.1993216512E+00   0.5998230950E-02   0.1714567309E-01  -0.6783517793E-03   0.0000000000E+00   0.0000000000E+00   0.0000000000E+00   0.3686666441E+00  -0.8246527754E+00   0.2283701861E+00  -0.9345379487E-01  -0.1555858209E-01   0.3606779169E-02
   0.1267174648E+01   0.4437307980E+00  -0.1914136484E-02   0.7688808297E-02   0.1964440597E-01  -0.1914136484E-02   0.0000000000E+00   0.0000000000E+00   0.0000000000E+00  -0.3323637196E+00  -0.1467203471E+01  -0.3387464564E+00  -0.1882189089E+00  -0.4401639704E-01   0.5398583087E-01
   0.1266887785E+01   0.4437336703E+00   0.1992023896E+00   0.7401945365E-02   0.1964727832E-01  -0.7976133793E-03   0.0000000000E+00   0.0000000000E+00   0.0000000000E+00   0.1566174078E+00  -0.1015733009E+01   0.1276108049E+00  -0.1444997023E+00  -0.3093374450E-01   0.3568154014E-01
   0.1300951390E+01   0.2340843695E+00  -0.2155452010E-02   0.8922840418E-02   0.2203560049E-01  -0.2155452010E-02   0.0000000000E+00   0.0000000000E+00   0.0000000000E+00  -0.4409902084E+00  -0.1496344231E+01  -0.3185734347E+00  -0.1174045760E+00  -0.4042161128E-01   0.3248152750E-01
   0.1300546628E+01   0.2341860979E+00   0.1991387317E+00   0.8518078174E-02   0.2213732892E-01  -0.8612712512E-03   0.0000000000E+00   0.0000000000E+00   0.0000000000E+00   0.1235905717E-01  -0.1120124036E+01   0.9218348530E-01  -0.9439016521E-01  -0.3247323006E-01   0.2150644980E-01
   0.9494898381E+00   0.8694293134E+00  -0.1790824561E-02   0.3526217146E-02   0.1406820939E-01  -0.1790824561E-02   0.0000000000E+00   0.0000000000E+00   0.0000000000E+00   0.4579094336E+00  -0.6229514839E+00   0.3901702987E+00   0.1406702833E+00   0.3947618554E-01  -0.9088788819E-01
   0.1023535151E+01   0.6470904793E+00  -0.1695909632E-02   0.4811190539E-02   0.1683394534E-01  -0.1695909632E-02   0.0000000000E+00   0.0000000000E+00   0.0000000000E+00   0.1552072150E+00  -0.9935567763E+00   0.6883144706E-01  -0.4624240489E-01   0.5538974937E-01   0.2850005995E-01
   0.9496445166E+00   0.8693244142E+00   0.1991577466E+00   0.3680895642E-02   0.1396331024E-01  -0.8422563591E-03   0.0000000000E+00   0.0000000000E+00   0.0000000000E+00   0.7292328639E-01  -0.9598597831E+00   0.3521841271E-01   0.1662792938E+00   0.2066102699E-01  -0.5064085479E-01
   0.1023471882E+01   0.6469627394E+00   0.1992802503E+00   0.4747922265E-02   0.1670620536E-01  -0.7197526770E-03   0.0000000000E+00   0.0000000000E+00   0.0000000000E+00   0.4003988889E+00  -0.7203150928E+00   0.3302614830E+00   0.1611195205E-01   0.3092191183E-01   0.2278822118E-01
   0.1087885638E+01   0.4349903498E+00  -0.2134438106E-02   0.6738798468E-02   0.1951581576E-01  -0.2134438106E-02   0.0000000000E+00   0.0000000000E+00   0.0000000000E+00  -0.3972068371E+00  -0.1542625414E+01  -0.3523102294E+00  -0.1548328384E+00   0.2877656687E-01   0.7676612209E-01
   0.1087530664E+01   0.4349033796E+00   0.1990954427E+00   0.6383824119E-02   0.1942884556E-01  -0.9045603474E-03   0.0000000000E+00   0.0000000000E+00   0.0000000000E+00   0.4134334899E+00  -0.7715129778E+00   0.4348028236E+00  -0.9138871340E-01   0.1427490415E-01   0.5303236515E-01
   0.1133629951E+01   0.2285214614E+00  -0.2484555318E-02   0.8181131354E-02   0.2204493735E-01  -0.2484555318E-02   0.0000000000E+00   0.0000000000E+00   0.0000000000E+00  -0.4493816425E+00  -0.1528502257E+01  -0.2610735375E+00  -0.1017312668E+00   0.2007891144E-01   0.5004887324E-01
   0.1133103911E+01   0.2285708550E+00   0.1989657962E+00   0.7655090925E-02   0.2209433099E-01  -0.1034206823E-02   0.0000000000E+00   0.0000000000E+00   0.0000000000E+00   0.1584471237E+00  -0.1025982960E+01   0.2908412743E+00  -0.6571922482E-01   0.6906931262E-02   0.3417721521E-01
   0.6907468653E+00   0.8617411597E+00  -0.1675585407E-02   0.2198360252E-02   0.1192370465E-01  -0.1675585407E-02   0.0000000000E+00   0.0000000000E+00   0.0000000000E+00  -0.9508713794E-01  -0.1027631347E+01  -0.9431425241E-01   0.2976341515E+00  -0.2552178053E-01   0.8380992383E-02
   0.8336476645E+00   0.6260180979E+00  -0.2485239148E-02   0.3874953499E-02   0.1574640593E-01  -0.2485239148E-02   0.0000000000E+00   0.0000000000E+00   0.0000000000E+00  -0.5886594425E-01  -0.1191591601E+01   0.3337696669E-01   0.6450180108E-01   0.1524905475E+00   0.1300657745E+00
   0.6910042856E+00   0.8615466452E+00   0.1992557769E+00   0.2455780579E-02   0.1172919024E-01  -0.7442260742E-03   0.0000000000E+00   0.0000000000E+00   0.0000000000E+00   0.6814414422E-01  -0.8246076139E+00   0.8771914703E-01   0.2963836091E+00  -0.2503903065E-01   0.1125664250E-01
   0.8336114205E+00   0.6257721415E+00   0.1988301190E+00   0.3838709535E-02   0.1550044947E-01  -0.1169884020E-02   0.0000000000E+00   0.0000000000E+00   0.0000000000E+00  -0.8089759873E-01  -0.1177691981E+01   0.3028589693E-01   0.1357753466E+00   0.8185427387E-01   0.8721719224E-01
   0.9250968715E+00   0.4193569836E+00  -0.2987409687E-02   0.5997421488E-02   0.1900826063E-01  -0.2987409687E-02   0.0000000000E+00   0.0000000000E+00   0.0000000000E+00  -0.3000389256E+00  -0.1553392193E+01  -0.1324583995E+00  -0.9511090806E-01   0.1123287190E+00   0.8934849290E-01
   0.9246615185E+00   0.4191622011E+00   0.1985978265E+00   0.5562068544E-02   0.1881347809E-01  -0.1402176478E-02   0.0000000000E+00   0.0000000000E+00   0.0000000000E+00  -0.4760804519E-01  -0.1347848252E+01   0.9670962952E-01  -0.1320564590E-01   0.6660276733E-01   0.6514345675E-01
   0.9833523806E+00   0.2204911324E+00  -0.3335368670E-02   0.7557409602E-02   0.2190361038E-01  -0.3335368670E-02   0.0000000000E+00   0.0000000000E+00   0.0000000000E+00  -0.4631125627E+00  -0.1652054597E+01  -0.1526163484E+00  -0.8638571426E-01   0.9629418322E-01   0.6502192555E-01
   0.9826787664E+00   0.2204796606E+00   0.1984701367E+00   0.6883795429E-02   0.2189213859E-01  -0.1529866331E-02   0.0000000000E+00   0.0000000000E+00   0.0000000000E+00  -0.2495508174E+00  -0.1584307280E+01  -0.1254584936E-01  -0.3927741479E-01   0.5865461010E-01   0.4477419062E-01
   0.8549017116E+00   0.2080704467E+00  -0.4384566803E-02   0.7031302586E-02   0.2184059167E-01  -0.4384566803E-02   0.0000000000E+00   0.0000000000E+00   0.0000000000E+00  -0.2133476482E+00  -0.1553817057E+01   0.2343662358E+00  -0.6335467335E-01   0.1687336733E+00   0.9836803742E-01
   0.8540567994E+00   0.2080381375E+00   0.1978494447E+00   0.6186390362E-02   0.2180828248E-01  -0.2150558329E-02   0.0000000000E+00   0.0000000000E+00   0.0000000000E+00   0.9584669041E-02  -0.1513097601E+01   0.3683968686E+00  -0.9335449368E-02   0.1040229110E+00   0.6684826556E-01
   0.7383854851E+00   0.1860867516E+00  -0.5881094785E-02   0.6608532052E-02   0.2176228962E-01  -0.5881094785E-02   0.0000000000E+00   0.0000000000E+00   0.0000000000E+00  -0.1379462493E+01  -0.2908611991E+01  -0.7007819917E+00   0.2369562749E-01   0.2531967849E+00   0.1028417857E+00
   0.7373514243E+00   0.1860600234E+00   0.1969899635E+00   0.5574471323E-02   0.2173556140E-01  -0.3010039530E-02   0.0000000000E+00   0.0000000000E+00   0.0000000000E+00  -0.2043001298E+01  -0.3758916289E+01  -0.1466508415E+01   0.8408656475E-01   0.1526445974E+00   0.7279141499E-01
   0.7930303090E+00   0.3939553737E+00  -0.3970008987E-02   0.5478131048E-02   0.1862710069E-01  -0.3970008987E-02   0.0000000000E+00   0.0000000000E+00   0.0000000000E+00  -0.1210069501E+00  -0.1476655823E+01   0.1988689023E+00  -0.3590851460E-01   0.1658349546E+00   0.1393063499E+00
   0.7924852365E+00   0.3937180956E+00   0.1980232459E+00   0.4933058470E-02   0.1838982262E-01  -0.1976757060E-02   0.0000000000E+00   0.0000000000E+00   0.0000000000E+00   0.1073226916E+00  -0.1319699151E+01   0.3926967472E+00   0.4935946765E-01   0.9575274032E-01   0.1018570795E+00
   0.6816158118E+00   0.3427675626E+00  -0.5365027627E-02   0.5366784803E-02   0.1844173259E-01  -0.5365027627E-02   0.0000000000E+00   0.0000000000E+00   0.0000000000E+00  -0.1340402671E+01  -0.2770145768E+01  -0.7510857828E+00   0.9073372415E-01   0.1542920882E+00   0.3058788846E+00
   0.6808734906E+00   0.3425733409E+00   0.1972286697E+00   0.4624463606E-02   0.1824751088E-01  -0.2771333340E-02   0.0000000000E+00   0.0000000000E+00   0.0000000000E+00  -0.1810612570E+01  -0.3319441171E+01  -0.1269511218E+01   0.1737531156E+00   0.8934094810E-01   0.1988250838E+00
   0.6972112070E+00   0.5749564581E+00  -0.3293724274E-02   0.3545523970E-02   0.1512638809E-01  -0.3293724274E-02   0.0000000000E+00   0.0000000000E+00   0.0000000000E+00  -0.1103445498E+01  -0.2293037307E+01  -0.8516098788E+00   0.1345062631E+00   0.2384957955E-01   0.1915848243E+00
   0.6970983639E+00   0.5747060033E+00   0.1983862090E+00   0.3432680864E-02   0.1487593333E-01  -0.1613794049E-02   0.0000000000E+00   0.0000000000E+00   0.0000000000E+00  -0.3480085088E+00  -0.1526841773E+01  -0.1021250702E+00   0.1871442459E+00   0.1997866991E-02   0.1320060622E+00
   0.5885010962E+00   0.4846185894E+00  -0.3875870668E-02   0.3754676238E-02   0.1496805236E-01  -0.3875870668E-02   0.0000000000E+00   0.0000000000E+00   0.0000000000E+00  -0.1414287377E+00  -0.1422651091E+01   0.1822899380E+00   0.1968569677E+00  -0.2364370416E+00   0.3357344293E+00
   0.5881631422E+00   0.4844594399E+00   0.1980494405E+00   0.3416722188E-02   0.1480890289E-01  -0.1950562499E-02   0.0000000000E+00   0.0000000000E+00   0.0000000000E+00  -0.9573907679E+00  -0.2225635236E+01  -0.6258993171E+00   0.2548455301E+00  -0.1438088802E+00   0.2207466580E+00
   0.5650056781E+00   0.7230470852E+00  -0.1688069754E-02   0.2114314066E-02   0.1177591824E-01  -0.1688069754E-02   0.0000000000E+00   0.0000000000E+00   0.0000000000E+00  -0.2032898805E+00  -0.1163383985E+01  -0.1933867510E+00   0.2852339292E+00  -0.2043634352E+00   0.1787100625E+00
   0.5651486079E+00   0.7229482507E+00   0.1992882800E+00   0.2257243850E-02   0.1167708370E-01  -0.7117229507E-03   0.0000000000E+00   0.0000000000E+00   0.0000000000E+00   0.1175189445E-01  -0.9330487717E+00   0.2762602595E-01   0.2841855360E+00  -0.1357577098E+00   0.1164954346E+00
   0.4671418171E+00   0.6001712989E+00  -0.1618138871E-02   0.2207110108E-02   0.1166835491E-01  -0.1618138871E-02   0.0000000000E+00   0.0000000000E+00   0.0000000000E+00   0.7239110744E+00  -0.4262413150E+00   0.6249778614E+00   0.3192185906E+00  -0.3562483110E+00   0.2433205915E+00
   0.4671148097E+00   0.6001978361E+00   0.1993411236E+00   0.2180102734E-02   0.1169489211E-01  -0.6588793606E-03   0.0000000000E+00   0.0000000000E+00   0.0000000000E+00   0.2256174275E+00  -0.8838722808E+00   0.1575387799E+00   0.3219308061E+00  -0.2267536543E+00   0.1586421834E+00
   0.3941950228E+00   0.8233565417E+00  -0.1310870293E-03   0.1004936779E-02   0.8810135715E-02  -0.1310870293E-03   0.0000000000E+00   0.0000000000E+00   0.0000000000E+00   0.3358227926E+00  -0.3657782247E+00   0.1425003273E+00   0.3483855630E+00  -0.1465826176E+00   0.2186794290E-01
   0.3240463420E+00   0.6856584334E+00   0.1521923062E-03   0.9794220494E-03   0.8807041419E-02   0.1521923062E-03   0.0000000000E+00   0.0000000000E+00   0.0000000000E+00   0.6803985329E+00  -0.1231254717E+00   0.3841843583E+00   0.3572927625E+00  -0.2236394057E+00   0.1255231997E+00
   0.3944319584E+00   0.8235003364E+00   0.2001862133E+00   0.1241872413E-02   0.8953930354E-02   0.1862102640E-03   0.0000000000E+00   0.0000000000E+00   0.0000000000E+00   0.5537152607E+00  -0.1776268067E+00   0.3487179073E+00   0.3141863955E+00  -0.1058909417E+00   0.1848869564E-01
   0.3241580658E+00   0.6859603048E+00   0.2003711046E+00   0.1091145818E-02   0.9108912810E-02   0.3711015548E-03   0.0000000000E+00   0.0000000000E+00   0.0000000000E+00   0.6811801774E+00  -0.1398591861E+00   0.3862728508E+00   0.3205363180E+00  -0.1529605099E+00   0.7435793610E-01
   0.1985862884E+00   0.8828908663E+00   0.5233210597E-03   0.2100353960E-03   0.6539986304E-02   0.5233210597E-03   0.0000000000E+00   0.0000000000E+00   0.0000000000E+00  -0.3862006303E+00  -0.8516924867E+00  -0.5873832378E+00   0.2481099542E+00  -0.4614220754E-01   0.6293590966E-02
   0.1652065692E+00   0.7384447821E+00   0.9603579172E-03   0.1372421559E-03   0.6835497139E-02   0.9603579172E-03   0.0000000000E+00   0.0000000000E+00   0.0000000000E+00   0.7455123691E+00   0.2446185619E+00   0.4324311130E+00   0.2291146183E+00  -0.8500284701E-01   0.2435765895E-01
   0.1987431370E+00   0.8833122951E+00   0.2005807405E+00   0.3668840157E-03   0.6961415103E-02   0.5807375137E-03   0.0000000000E+00   0.0000000000E+00   0.0000000000E+00   0.5688993117E+00   0.2197519587E-02   0.3104511402E+00   0.2131669682E+00  -0.4103420066E-01   0.1705331989E-03
   0.1652988464E+00   0.7390107123E+00   0.2008428102E+00   0.2295193535E-03   0.7401427286E-02   0.8428072394E-03   0.0000000000E+00   0.0000000000E+00   0.0000000000E+00   0.5064779335E+00  -0.8346861874E-01   0.1580440871E+00   0.1920019471E+00  -0.6321778349E-01   0.6963319370E-02
   0.4362487912E+00   0.9732211020E+00  -0.4759368153E-03   0.1088154232E-02   0.8352675970E-02  -0.4759368153E-03   0.0000000000E+00   0.0000000000E+00   0.0000000000E+00  -0.2603331952E+00  -0.9367103901E+00  -0.3765368600E+00   0.3716728250E+00  -0.1136827908E+00  -0.1371448656E-01
   0.4365211783E+00   0.9732832137E+00   0.1999628253E+00   0.1360541315E-02   0.8414787660E-02  -0.3717766672E-04   0.0000000000E+00   0.0000000000E+00   0.0000000000E+00   0.2816938970E+00  -0.3997362713E+00   0.1576597966E+00   0.3170668911E+00  -0.7847823302E-01  -0.6786339414E-02
   0.2171514167E+00   0.1037064239E+01   0.2450574700E-03   0.3489086872E-03   0.6067679325E-02   0.2450574700E-03   0.0000000000E+00   0.0000000000E+00   0.0000000000E+00  -0.2683093163E+00  -0.7379851013E+00  -0.4296469555E+00   0.2387281133E+00  -0.4140894482E-01   0.2859709844E-01
   0.2173337977E+00   0.1037369608E+01   0.2003864616E+00   0.5312897294E-03   0.6373048086E-02   0.3864585759E-03   0.0000000000E+00   0.0000000000E+00   0.0000000000E+00   0.3245847344E+00  -0.2173066385E+00   0.1206455081E+00   0.2019360899E+00  -0.3306343036E-01   0.1264470143E-01
   0.2274959800E+00   0.1215799205E+01   0.8133147064E-04   0.4919590282E-03   0.5429024867E-02   0.8133147064E-04   0.0000000000E+00   0.0000000000E+00   0.0000000000E+00  -0.3195436790E-01  -0.4925383543E+00  -0.1796719850E+00   0.1838208416E+00  -0.4468083632E-01   0.1542087346E-02
   0.2276202646E+00   0.1216025587E+01   0.2002449398E+00   0.6162436085E-03   0.5655407059E-02   0.2449368456E-03   0.0000000000E+00   0.0000000000E+00   0.0000000000E+00   0.4382330220E+00  -0.6870009510E-01   0.2657052269E+00   0.1557924384E+00  -0.3107616473E-01  -0.3243654268E-03
   0.2305504006E+00   0.1407301308E+01  -0.2385069379E-03   0.4870666051E-03   0.4693627596E-02  -0.2385069379E-03   0.0000000000E+00   0.0000000000E+00   0.0000000000E+00  -0.2401960385E+00  -0.6783258493E+00  -0.3271721445E+00   0.1312280150E+00  -0.5796684335E-01  -0.2541555198E-01
   0.2306440227E+00   0.1407467921E+01   0.2000221308E+00   0.5806886951E-03   0.4860241220E-02   0.2212780683E-04   0.0000000000E+00   0.0000000000E+00   0.0000000000E+00   0.3560593064E+00  -0.1218682900E+00   0.2454728770E+00   0.1164319262E+00  -0.3640139505E-01  -0.1495380250E-01
   0.2310726268E+00   0.1603525030E+01  -0.5104288502E-03   0.4885418081E-03   0.3908739521E-02  -0.5104288502E-03   0.0000000000E+00   0.0000000000E+00   0.0000000000E+00  -0.2370208382E+00  -0.6572881025E+00  -0.2770813542E+00   0.9755655145E-01  -0.5224491375E-01  -0.1772456409E-01
   0.2311402047E+00   0.1603644504E+01   0.1998265144E+00   0.5561196549E-03   0.4028213539E-02  -0.1734886230E-03   0.0000000000E+00   0.0000000000E+00   0.0000000000E+00   0.2739439018E+00  -0.1782559122E+00   0.2148010290E+00   0.8712256640E-01  -0.3178986226E-01  -0.1110609791E-01
   0.2308198570E+00   0.1801531853E+01  -0.7104188909E-03   0.4679019577E-03   0.3118572881E-02  -0.7104188909E-03   0.0000000000E+00   0.0000000000E+00   0.0000000000E+00  -0.2705003501E+00  -0.6627319960E+00  -0.2705082863E+00   0.6346888734E-01  -0.4281740542E-01  -0.1353812880E-01
   0.2308707953E+00   0.1801612227E+01   0.1996784876E+00   0.5188402632E-03   0.3198946514E-02  -0.3215154285E-03   0.0000000000E+00   0.0000000000E+00   0.0000000000E+00   0.1943833620E+00  -0.2249530399E+00   0.1777516093E+00   0.5724759552E-01  -0.2535188654E-01  -0.8610297472E-02
   0.2303665731E+00   0.2000242940E+01  -0.8348313620E-03   0.4353530811E-03   0.2352109561E-02  -0.8348313620E-03   0.0000000000E+00   0.0000000000E+00   0.0000000000E+00  -0.2812141113E+00  -0.6384113015E+00  -0.2509611028E+00   0.3841735772E-01  -0.3285744277E-01  -0.6183659987E-02
   0.2304058319E+00   0.2000291062E+01   0.1995795384E+00   0.4746119056E-03   0.2400232423E-02  -0.4204646282E-03   0.0000000000E+00   0.0000000000E+00   0.0000000000E+00   0.1486455922E+00  -0.2311737651E+00   0.1645045786E+00   0.3417692517E-01  -0.1910703698E-01  -0.4684671908E-02
   0.2299346687E+00   0.2199176402E+01  -0.8804091739E-03   0.3837857307E-03   0.1639691578E-02  -0.8804091739E-03   0.0000000000E+00   0.0000000000E+00   0.0000000000E+00  -0.3706816549E+00  -0.6824866399E+00  -0.3185036220E+00   0.1790931673E-01  -0.2345267512E-01   0.3053468737E-02
   0.2299653574E+00   0.2199198462E+01   0.1995319296E+00   0.4144743872E-03   0.1661751516E-02  -0.4680733508E-03   0.0000000000E+00   0.0000000000E+00   0.0000000000E+00   0.6632076117E-01  -0.2642602747E+00   0.1056771954E+00   0.1504772945E-01  -0.1340928817E-01   0.5604764308E-03
   0.2293780147E+00   0.2398751729E+01  -0.8357122948E-03   0.3157557144E-03   0.1009458700E-02  -0.8357122948E-03   0.0000000000E+00   0.0000000000E+00   0.0000000000E+00  -0.2425280242E+00  -0.4980896301E+00  -0.1796037381E+00   0.2606481575E-02  -0.1585762691E-01   0.1571660497E-01
   0.2294020816E+00   0.2398754037E+01   0.1995421126E+00   0.3398226413E-03   0.1011767317E-02  -0.4578904277E-03   0.0000000000E+00   0.0000000000E+00   0.0000000000E+00   0.2249034901E+00  -0.4553534583E-01   0.2763085541E+00   0.6928931966E-03  -0.9016311580E-02   0.7994639273E-02
   0.2290301765E+00   0.2598805179E+01  -0.6879845319E-03   0.2321295450E-03   0.4963785974E-03  -0.6879845319E-03   0.0000000000E+00   0.0000000000E+00   0.0000000000E+00  -0.1013016021E+01  -0.1204101151E+01  -0.9522964839E+00  -0.7744701981E-02  -0.9866702507E-02   0.3155003908E-01
   0.2290475277E+00   0.2598795555E+01   0.1996174478E+00   0.2494806925E-03   0.4867548131E-03  -0.3825552400E-03   0.0000000000E+00   0.0000000000E+00   0.0000000000E+00  -0.3656453675E+00  -0.5662046742E+00  -0.3149392085E+00  -0.9903351939E-02  -0.5712897872E-02   0.1781077720E-01
   0.2294210436E+00   0.2799246861E+01  -0.4163894585E-03   0.1353266083E-03   0.1407409383E-03  -0.4163894585E-03   0.0000000000E+00   0.0000000000E+00   0.0000000000E+00   0.1414699990E+01   0.1314375397E+01   0.1455953362E+01  -0.1756669594E-01  -0.6011503940E-02   0.5659504704E-01
   0.2294267131E+00   0.2799237134E+01   0.1997686833E+00   0.1409961005E-03   0.1310141063E-03  -0.2313197232E-03   0.0000000000E+00   0.0000000000E+00   0.0000000000E+00   0.2061973350E+01   0.1959775243E+01   0.2096167656E+01  -0.1928309901E-01  -0.3399511638E-02   0.3211919561E-01
   0.2284518480E+00   0.3000000000E+01   0.0000000000E+00   0.0000000000E+00   0.0000000000E+00   0.0000000000E+00   0.0000000000E+00   0.0000000000E+00   0.0000000000E+00  -0.7672946420E+01  -0.7703623422E+01  -0.7672908348E+01  -0.2394833543E-01   0.8192196501E-04   0.7438111725E-01
   0.2284518480E+00   0.3000000000E+01   0.2000000030E+00   0.0000000000E+00   0.0000000000E+00   0.0000000000E+00   0.0000000000E+00   0.0000000000E+00   0.0000000000E+00  -0.6704175583E+01  -0.6731007140E+01  -0.6704156176E+01  -0.2456315065E-01   0.4264144185E-04   0.4124217906E-01
   0.4480960920E+00   0.1169368041E+01  -0.6058028953E-03   0.1242514047E-02   0.7232681431E-02  -0.6058028953E-03   0.0000000000E+00   0.0000000000E+00   0.0000000000E+00  -0.1468852276E+00  -0.8208696673E+00  -0.2582490582E+00   0.2646536273E+00  -0.1150768281E+00  -0.1623380127E-01
   0.4482783116E+00   0.1169435458E+01   0.1998416817E+00   0.1424733649E-02   0.7300097589E-02  -0.1583212650E-03   0.0000000000E+00   0.0000000000E+00   0.0000000000E+00   0.3335298589E+00  -0.3362478007E+00   0.2205449243E+00   0.2227704852E+00  -0.7326322910E-01  -0.1170714112E-01
   0.4497801828E+00   0.1372124772E+01  -0.8916974854E-03   0.1121894755E-02   0.6054861547E-02  -0.8916974854E-03   0.0000000000E+00   0.0000000000E+00   0.0000000000E+00  -0.3049573335E+00  -0.8908858905E+00  -0.3330554163E+00   0.1760405060E+00  -0.9095168446E-01  -0.3190375491E-01
   0.4499278107E+00   0.1372185805E+01   0.1996332183E+00   0.1269522666E-02   0.6115895164E-02  -0.3667847376E-03   0.0000000000E+00   0.0000000000E+00   0.0000000000E+00   0.1041073400E+00  -0.4940103985E+00   0.6546677791E-01   0.1501460128E+00  -0.5610313017E-01  -0.2117179804E-01
   0.4493490614E+00   0.1575042015E+01  -0.1051366388E-02   0.1033679440E-02   0.4903564928E-02  -0.1051366388E-02   0.0000000000E+00   0.0000000000E+00   0.0000000000E+00  -0.2595987761E+00  -0.8067457368E+00  -0.2541811767E+00   0.1320145944E+00  -0.6767753229E-01  -0.8671852283E-02
   0.4494634717E+00   0.1575091385E+01   0.1995025097E+00   0.1148089694E-02   0.4952935408E-02  -0.4974932753E-03   0.0000000000E+00   0.0000000000E+00   0.0000000000E+00   0.6385800214E-01  -0.4954339086E+00   0.5960380896E-01   0.1116146762E+00  -0.4065957522E-01  -0.7849988978E-02
   0.4488056202E+00   0.1777754985E+01  -0.1137708987E-02   0.9319081547E-03   0.3825035259E-02  -0.1137708987E-02   0.0000000000E+00   0.0000000000E+00   0.0000000000E+00  -0.2700994956E+00  -0.7599397864E+00  -0.2338400287E+00   0.8550606581E-01  -0.5181892117E-01  -0.4155134253E-02
   0.4488981585E+00   0.1777788082E+01   0.1994208528E+00   0.1024446452E-02   0.3858131869E-02  -0.5791501933E-03   0.0000000000E+00   0.0000000000E+00   0.0000000000E+00   0.2285333197E-01  -0.4813861649E+00   0.4873114820E-01   0.7159000182E-01  -0.3023725856E-01  -0.4900255844E-02
   0.4484100633E+00   0.1980554929E+01  -0.1162642659E-02   0.8217683251E-03   0.2833829316E-02  -0.1162642659E-02   0.0000000000E+00   0.0000000000E+00   0.0000000000E+00  -0.2667820309E+00  -0.7003376039E+00  -0.2100855185E+00   0.5149688202E-01  -0.3889813578E-01   0.3678801915E-02
   0.4484859957E+00   0.1980570795E+01   0.1993807338E+00   0.8977007006E-03   0.2849695004E-02  -0.6192692227E-03   0.0000000000E+00   0.0000000000E+00   0.0000000000E+00   0.2642420470E-01  -0.4209202447E+00   0.7319225986E-01   0.4114859010E-01  -0.2209657043E-01  -0.1337928360E-03
   0.4480826340E+00   0.2183569111E+01  -0.1123547262E-02   0.6924350010E-03   0.1947080657E-02  -0.1123547262E-02   0.0000000000E+00   0.0000000000E+00   0.0000000000E+00  -0.3568226449E+00  -0.7273627351E+00  -0.2865360680E+00   0.2284637624E-01  -0.2822081196E-01   0.1160802235E-01
   0.4481455818E+00   0.2183569117E+01   0.1993836365E+00   0.7553827821E-03   0.1947087018E-02  -0.6163665043E-03   0.0000000000E+00   0.0000000000E+00   0.0000000000E+00  -0.2030255631E-01  -0.4033450229E+00   0.4042611007E-01   0.1531220825E-01  -0.1563970641E-01   0.4828827975E-02
   0.4477425702E+00   0.2386989405E+01  -0.1010878884E-02   0.5467421928E-03   0.1185225012E-02  -0.1010878884E-02   0.0000000000E+00   0.0000000000E+00   0.0000000000E+00  -0.2103397050E+00  -0.5095446918E+00  -0.1352667076E+00   0.8108929722E-03  -0.1918585062E-01   0.2295246087E-01
   0.4477943292E+00   0.2386977189E+01   0.1994349010E+00   0.5985012431E-03   0.1173008533E-02  -0.5651019732E-03   0.0000000000E+00   0.0000000000E+00   0.0000000000E+00   0.1847003382E+00  -0.1245520148E+00   0.2507681569E+00  -0.4638258448E-02  -0.1054430034E-01   0.1192638402E-01
   0.4475723867E+00   0.2590887664E+01  -0.8055626701E-03   0.3856787212E-03   0.5770939924E-03  -0.8055626701E-03   0.0000000000E+00   0.0000000000E+00   0.0000000000E+00  -0.1066811546E+01  -0.1288105649E+01  -0.9983253232E+00  -0.1455541630E-01  -0.1174427938E-01   0.3814951984E-01
   0.4476113777E+00   0.2590869739E+01   0.1995453258E+00   0.4246696716E-03   0.5591689020E-03  -0.4546772234E-03   0.0000000000E+00   0.0000000000E+00   0.0000000000E+00  -0.4514112315E+00  -0.6780239201E+00  -0.3908166916E+00  -0.1974790429E-01  -0.6614549771E-02   0.2173564395E-01
   0.4478703219E+00   0.2795238738E+01  -0.4801109829E-03   0.2137499374E-03   0.1616481211E-03  -0.4801109829E-03   0.0000000000E+00   0.0000000000E+00   0.0000000000E+00   0.1664934224E+01   0.1550427456E+01   0.1711074443E+01  -0.2809165522E-01  -0.7111461147E-02   0.6440443607E-01
   0.4478868026E+00   0.2795226148E+01   0.1997298276E+00   0.2302305835E-03   0.1490582046E-03  -0.2701753519E-03   0.0000000000E+00   0.0000000000E+00   0.0000000000E+00   0.2238776573E+01   0.2125272480E+01   0.2279345988E+01  -0.3226663891E-01  -0.3832918606E-02   0.3696046852E-01
   0.4470604360E+00   0.3000000000E+01   0.0000000000E+00   0.0000000000E+00   0.0000000000E+00   0.0000000000E+00   0.0000000000E+00   0.0000000000E+00   0.0000000000E+00  -0.8560935573E+01  -0.8595067769E+01  -0.8560845665E+01  -0.3640164015E-01   0.9713682505E-04   0.8373079908E-01
   0.4470604360E+00   0.3000000000E+01   0.2000000030E+00   0.0000000000E+00   0.0000000000E+00   0.0000000000E+00   0.0000000000E+00   0.0000000000E+00   0.0000000000E+00  -0.7432010823E+01  -0.7461649658E+01  -0.7431936577E+01  -0.3871243560E-01   0.5212180471E-04   0.4700172360E-01
   0.6812400524E+00   0.1116171088E+01  -0.1675796172E-02   0.2200156417E-02   0.9503687677E-02  -0.1675796172E-02   0.0000000000E+00   0.0000000000E+00   0.0000000000E+00  -0.6254478432E+00  -0.1478250445E+01  -0.6065505907E+00   0.2743922702E+00  -0.1079435612E+00  -0.4063278637E-01
   0.6814162121E+00   0.1116069131E+01   0.1992062772E+00   0.2376316103E-02   0.9401730946E-02  -0.7937257720E-03   0.0000000000E+00   0.0000000000E+00   0.0000000000E+00   0.8157943664E-01  -0.7365242101E+00   0.1098984236E+00   0.2553030371E+00  -0.6828753790E-01  -0.2320771453E-01
   0.6734137626E+00   0.1336937602E+01  -0.1637773514E-02   0.1898953572E-02   0.7654001696E-02  -0.1637773514E-02   0.0000000000E+00   0.0000000000E+00   0.0000000000E+00  -0.3410303069E+00  -0.1085258145E+01  -0.3014322752E+00   0.1720385785E+00  -0.8590907347E-01  -0.6588976157E-02
   0.6735670127E+00   0.1336881187E+01   0.1991804329E+00   0.2052203742E-02   0.7597587385E-02  -0.8195700705E-03   0.0000000000E+00   0.0000000000E+00   0.0000000000E+00   0.8849071326E-01  -0.6426081365E+00   0.1302292306E+00   0.1652354848E+00  -0.5312392483E-01  -0.6188860697E-02
   0.6696428676E+00   0.1547136861E+01  -0.1620181773E-02   0.1688959552E-02   0.6076050500E-02  -0.1620181773E-02   0.0000000000E+00   0.0000000000E+00   0.0000000000E+00  -0.3183241639E+00  -0.9944239598E+00  -0.2666646904E+00   0.1386758453E+00  -0.7455523888E-01  -0.6927365381E-02
   0.6697718113E+00   0.1547101830E+01   0.1991545877E+00   0.1817903321E-02   0.6041020230E-02  -0.8454152536E-03   0.0000000000E+00   0.0000000000E+00   0.0000000000E+00   0.7352695539E-01  -0.5977784487E+00   0.1237550230E+00   0.1300699399E+00  -0.4477062003E-01  -0.6290468342E-02
   0.6683726975E+00   0.1754297594E+01  -0.1585688829E-02   0.1486248490E-02   0.4683234264E-02  -0.1585688829E-02   0.0000000000E+00   0.0000000000E+00   0.0000000000E+00  -0.2859528766E+00  -0.8824911214E+00  -0.2170654790E+00   0.8836514717E-01  -0.5930450583E-01   0.1511136164E-02
   0.6684840656E+00   0.1754268959E+01   0.1991446594E+00   0.1597616578E-02   0.4654598925E-02  -0.8553436310E-03   0.0000000000E+00   0.0000000000E+00   0.0000000000E+00   0.4076919839E-01  -0.5578370852E+00   0.1055247555E+00   0.8242430940E-01  -0.3476916563E-01  -0.1677333628E-02
   0.6680340185E+00   0.1960994599E+01  -0.1522741662E-02   0.1282514465E-02   0.3441088609E-02  -0.1522741662E-02   0.0000000000E+00   0.0000000000E+00   0.0000000000E+00  -0.2835350251E+00  -0.8046441794E+00  -0.2018683990E+00   0.5157884121E-01  -0.4624529087E-01   0.7396265959E-02
   0.6681305942E+00   0.1960964796E+01   0.1991578879E+00   0.1379090230E-02   0.3411285885E-02  -0.8421151050E-03   0.0000000000E+00   0.0000000000E+00   0.0000000000E+00   0.3201415547E-01  -0.4939849197E+00   0.1081503627E+00   0.4631259695E-01  -0.2648235471E-01   0.2046387193E-02
   0.6678323497E+00   0.2167924505E+01  -0.1409181466E-02   0.1062427663E-02   0.2349004530E-02  -0.1409181466E-02   0.0000000000E+00   0.0000000000E+00   0.0000000000E+00  -0.3852321292E+00  -0.8272523214E+00  -0.2962443328E+00   0.1881500954E-01  -0.3440165108E-01   0.1637873983E-01
   0.6679157206E+00   0.2167890943E+01   0.1992065377E+00   0.1145798591E-02   0.2315442953E-02  -0.7934653031E-03   0.0000000000E+00   0.0000000000E+00   0.0000000000E+00  -0.2892453050E-01  -0.4765150381E+00   0.5378907204E-01   0.1428728148E-01  -0.1935044506E-01   0.7710383409E-02
   0.6676235628E+00   0.2375184041E+01  -0.1229011470E-02   0.8258647902E-03   0.1422860746E-02  -0.1229011470E-02   0.0000000000E+00   0.0000000000E+00   0.0000000000E+00  -0.2131288251E+00  -0.5683684992E+00  -0.1244149603E+00  -0.7112848121E-02  -0.2391208690E-01   0.2857246203E-01
   0.6676936788E+00   0.2375148261E+01   0.1992997696E+00   0.8959807782E-03   0.1387081442E-02  -0.7002334217E-03   0.0000000000E+00   0.0000000000E+00   0.0000000000E+00   0.2014351445E+00  -0.1580017793E+00   0.2837359015E+00  -0.1111648988E-01  -0.1351868307E-01   0.1552027752E-01
   0.6674419202E+00   0.2582856581E+01  -0.9584104854E-03   0.5733531719E-03   0.6903911441E-03  -0.9584104854E-03   0.0000000000E+00   0.0000000000E+00   0.0000000000E+00  -0.1205313870E+01  -0.1467372088E+01  -0.1127521142E+01  -0.2560896338E-01  -0.1508133148E-01   0.4471539060E-01
   0.6674945095E+00   0.2582824396E+01   0.1994509707E+00   0.6259424791E-03   0.6582064317E-03  -0.5490322518E-03   0.0000000000E+00   0.0000000000E+00   0.0000000000E+00  -0.5288867412E+00  -0.7906661226E+00  -0.4566878395E+00  -0.3102336806E-01  -0.8898759741E-02   0.2609481054E-01
   0.6674026626E+00   0.2791084791E+01  -0.5664237818E-03   0.3092666247E-03   0.1929005719E-03  -0.5664237818E-03   0.0000000000E+00   0.0000000000E+00   0.0000000000E+00   0.1997717700E+01   0.1862488878E+01   0.2049872039E+01  -0.4157937662E-01  -0.9734149177E-02   0.7417847323E-01
   0.6674236431E+00   0.2791066923E+01   0.1996772308E+00   0.3302470876E-03   0.1750330648E-03  -0.3227721580E-03   0.0000000000E+00   0.0000000000E+00   0.0000000000E+00   0.2533953767E+01   0.2404027587E+01   0.2582272209E+01  -0.4655536639E-01  -0.5410094008E-02   0.4319615380E-01
   0.6674458380E+00   0.3000000000E+01   0.0000000000E+00   0.0000000000E+00   0.0000000000E+00   0.0000000000E+00   0.0000000000E+00   0.0000000000E+00   0.0000000000E+00  -0.9976487111E+01  -0.1001633020E+02  -0.9976415835E+01  -0.5104862244E-01   0.9542480605E-04   0.9665743002E-01
   0.6674458380E+00   0.3000000000E+01   0.2000000030E+00   0.0000000000E+00   0.0000000000E+00   0.0000000000E+00   0.0000000000E+00   0.0000000000E+00   0.0000000000E+00  -0.8525510482E+01  -0.8559587851E+01  -0.8525464065E+01  -0.5379105818E-01   0.5111946258E-04   0.5490633767E-01
   0.8891986080E+00   0.2788268246E+01  -0.6693776673E-03   0.4249879578E-03   0.2259359938E-03  -0.6693776673E-03   0.0000000000E+00   0.0000000000E+00   0.0000000000E+00   0.2471092106E+01   0.2312748510E+01   0.2529175946E+01  -0.5847160232E-01  -0.1107662843E-01   0.8759812349E-01
   0.8889284130E+00   0.3000000000E+01   0.0000000000E+00   0.0000000000E+00   0.0000000000E+00   0.0000000000E+00   0.0000000000E+00   0.0000000000E+00   0.0000000000E+00  -0.1144675117E+02  -0.1149257411E+02  -0.1144672331E+02  -0.6878994939E-01   0.5443520262E-04   0.1122918582E+00
   0.8892182246E+00   0.2788249366E+01   0.1996115761E+00   0.4446045819E-03   0.2070556676E-03  -0.3884268561E-03   0.0000000000E+00   0.0000000000E+00   0.0000000000E+00   0.2851545054E+01   0.2700312401E+01   0.2907724119E+01  -0.6380413681E-01  -0.5995709777E-02   0.5192461311E-01
   0.8889284130E+00   0.3000000000E+01   0.2000000030E+00   0.0000000000E+00   0.0000000000E+00   0.0000000000E+00   0.0000000000E+00   0.0000000000E+00   0.0000000000E+00  -0.9950846119E+01  -0.9990722105E+01  -0.9950842540E+01  -0.7084060526E-01   0.2911303880E-04   0.6496022261E-01
   0.1111321417E+01   0.2786672770E+01  -0.7577147801E-03   0.5627567056E-03   0.2581504196E-03  -0.7577147801E-03   0.0000000000E+00   0.0000000000E+00   0.0000000000E+00   0.2898891265E+01   0.2716844143E+01   0.2959823019E+01  -0.7919840501E-01  -0.8078381566E-02   0.9854071285E-01
   0.1110863090E+01   0.3000000000E+01   0.0000000000E+00   0.0000000000E+00   0.0000000000E+00   0.0000000000E+00   0.0000000000E+00   0.0000000000E+00   0.0000000000E+00  -0.1298720556E+02  -0.1303921104E+02  -0.1298718188E+02  -0.9025305394E-01   0.3323334598E-04   0.1259236345E+00
   0.1111334759E+01   0.2786650761E+01   0.1995544544E+00   0.5760994593E-03   0.2361413451E-03  -0.4455486180E-03   0.0000000000E+00   0.0000000000E+00   0.0000000000E+00   0.3193421614E+01   0.3021271133E+01   0.3254238812E+01  -0.8522024583E-01  -0.3506014600E-02   0.5942738750E-01
   0.1110863090E+01   0.3000000000E+01   0.2000000030E+00   0.0000000000E+00   0.0000000000E+00   0.0000000000E+00   0.0000000000E+00   0.0000000000E+00   0.0000000000E+00  -0.1128638876E+02  -0.1133161707E+02  -0.1128638490E+02  -0.9064628376E-01   0.1815480927E-04   0.7380347710E-01
   0.1333663891E+01   0.2785948964E+01  -0.8161763984E-03   0.7261709816E-03   0.2839240575E-03  -0.8161763984E-03   0.0000000000E+00   0.0000000000E+00   0.0000000000E+00   0.3288659148E+01   0.3085026685E+01   0.3346930729E+01  -0.1022790703E+00  -0.1022936398E-01   0.1058345795E+00
   0.1333017710E+01   0.3000000000E+01   0.0000000000E+00   0.0000000000E+00   0.0000000000E+00   0.0000000000E+00   0.0000000000E+00   0.0000000000E+00   0.0000000000E+00  -0.1425722836E+02  -0.1431434888E+02  -0.1425721704E+02  -0.1163658279E+00   0.1237034886E-04   0.1348509407E+00
   0.1333664097E+01   0.2785923075E+01   0.1995140157E+00   0.7263774478E-03   0.2580347421E-03  -0.4859872921E-03   0.0000000000E+00   0.0000000000E+00   0.0000000000E+00   0.3454008418E+01   0.3264153377E+01   0.3514723386E+01  -0.1083463121E+00  -0.3725468850E-02   0.6495145317E-01
   0.1333017710E+01   0.3000000000E+01   0.2000000030E+00   0.0000000000E+00   0.0000000000E+00   0.0000000000E+00   0.0000000000E+00   0.0000000000E+00   0.0000000000E+00  -0.1231090865E+02  -0.1236025277E+02  -0.1231090955E+02  -0.1136904039E+00   0.6755198625E-05   0.8002180517E-01
   0.1556153601E+01   0.2785720284E+01  -0.8713175014E-03   0.9180912175E-03   0.3094036851E-03  -0.8713175014E-03   0.0000000000E+00   0.0000000000E+00   0.0000000000E+00   0.3699876313E+01   0.3474555319E+01   0.3754091725E+01  -0.1302351442E+00  -0.9970449322E-02   0.1124764961E+00
   0.1555290700E+01   0.3000000000E+01   0.0000000000E+00   0.0000000000E+00   0.0000000000E+00   0.0000000000E+00   0.0000000000E+00   0.0000000000E+00   0.0000000000E+00  -0.1561185787E+02  -0.1567442268E+02  -0.1561185399E+02  -0.1478307926E+00   0.2791843179E-05   0.1435924932E+00
   0.1556131702E+01   0.2785689382E+01   0.1994742579E+00   0.8961920615E-03   0.2785024290E-03  -0.5257450793E-03   0.0000000000E+00   0.0000000000E+00   0.0000000000E+00   0.3667281381E+01   0.3461014299E+01   0.3727277483E+01  -0.1361402636E+00  -0.1987687926E-02   0.7034109134E-01
   0.1555290700E+01   0.3000000000E+01   0.2000000030E+00   0.0000000000E+00   0.0000000000E+00   0.0000000000E+00   0.0000000000E+00   0.0000000000E+00   0.0000000000E+00  -0.1335553885E+02  -0.1340906972E+02  -0.1335553967E+02  -0.1402171949E+00   0.1509944112E-05   0.8633698295E-01
   0.1778742409E+01   0.2785695874E+01  -0.9405995466E-03   0.1140208864E-02   0.3329139534E-03  -0.9405995466E-03   0.0000000000E+00   0.0000000000E+00   0.0000000000E+00   0.4128179960E+01   0.3879959708E+01   0.4178761653E+01  -0.1525679803E+00  -0.4538025370E-01   0.1248146305E+00
   0.1777629730E+01   0.3000000000E+01   0.0000000000E+00   0.0000000000E+00   0.0000000000E+00   0.0000000000E+00   0.0000000000E+00   0.0000000000E+00   0.0000000000E+00  -0.1665353896E+02  -0.1672028860E+02  -0.1665353995E+02  -0.1850944199E+00  -0.6067278181E-06   0.1528639460E+00
   0.1778686602E+01   0.2785659262E+01   0.1994229880E+00   0.1084402011E-02   0.2963017053E-03  -0.5770150375E-03   0.0000000000E+00   0.0000000000E+00   0.0000000000E+00   0.3913011656E+01   0.3689876835E+01   0.3973818194E+01  -0.1572277589E+00  -0.2064636377E-01   0.7973787108E-01
   0.1777629730E+01   0.3000000000E+01   0.2000000030E+00   0.0000000000E+00   0.0000000000E+00   0.0000000000E+00   0.0000000000E+00   0.0000000000E+00   0.0000000000E+00  -0.1402193110E+02  -0.1407813384E+02  -0.1402193240E+02  -0.1700617806E+00  -0.4067512916E-06   0.9346221138E-01
   0.2001388528E+01   0.2785795597E+01  -0.1309302307E-02   0.1388527717E-02   0.4333573933E-03  -0.1309302307E-02   0.0000000000E+00   0.0000000000E+00   0.0000000000E+00   0.5677114303E+01   0.5379515408E+01   0.5768923778E+01  -0.1741790908E+00  -0.9114026149E-01   0.1582866733E+00
   0.2000000000E+01   0.3000000000E+01   0.0000000000E+00   0.0000000000E+00   0.0000000000E+00   0.0000000000E+00   0.0000000000E+00   0.0000000000E+00   0.0000000000E+00  -0.2277276166E+02  -0.2286403972E+02  -0.2277276388E+02  -0.2274933338E+00  -0.2343576060E-05   0.2218124547E+00
   0.2001288421E+01   0.2785756878E+01   0.1991916282E+00   0.1288421276E-02   0.3946379146E-03  -0.8083747750E-03   0.0000000000E+00   0.0000000000E+00   0.0000000000E+00   0.5063288894E+01   0.4793513741E+01   0.5166604681E+01  -0.1770051949E+00  -0.4400634466E-01   0.1016630973E+00
   0.2000000000E+01   0.3000000000E+01   0.2000000030E+00   0.0000000000E+00   0.0000000000E+00   0.0000000000E+00   0.0000000000E+00   0.0000000000E+00   0.0000000000E+00  -0.2000467341E+02  -0.2008485538E+02  -0.2000467486E+02  -0.2028281988E+00  -0.1430395391E-05   0.1364234704E+00
   0.8893967358E+00   0.2577292264E+01  -0.1145889621E-02   0.7990087634E-03   0.8128338448E-03  -0.1145889621E-02   0.0000000000E+00   0.0000000000E+00   0.0000000000E+00  -0.1217542538E+01  -0.1524653447E+01  -0.1128626350E+01  -0.4096665312E-01  -0.1493352883E-01   0.5629633684E-01
   0.8894562978E+00   0.2577257779E+01   0.1993313309E+00   0.8585708062E-03   0.7783485458E-03  -0.6686721050E-03   0.0000000000E+00   0.0000000000E+00   0.0000000000E+00  -0.7015747934E+00  -0.1006835579E+01  -0.6161294045E+00  -0.4680455743E-01  -0.9049133898E-02   0.3371214182E-01
   0.1111663083E+01   0.2574064775E+01  -0.1301592693E-02   0.1061543304E-02   0.9272552063E-03  -0.1301592693E-02   0.0000000000E+00   0.0000000000E+00   0.0000000000E+00  -0.1313679497E+01  -0.1662746815E+01  -0.1218549067E+01  -0.6152023008E-01  -0.6703036848E-02   0.6311620510E-01
   0.1111725652E+01   0.2574023400E+01   0.1992297940E+00   0.1124112177E-02   0.8858803796E-03  -0.7702089884E-03   0.0000000000E+00   0.0000000000E+00   0.0000000000E+00  -0.8100001673E+00  -0.1155320982E+01  -0.7169950330E+00  -0.6991793764E-01  -0.4029000767E-02   0.3907550850E-01
   0.1334166467E+01   0.2572543510E+01  -0.1407862947E-02   0.1361307050E-02   0.1016510124E-02  -0.1407862947E-02   0.0000000000E+00   0.0000000000E+00   0.0000000000E+00  -0.1384218700E+01  -0.1768062700E+01  -0.1290211647E+01  -0.8177685797E-01  -0.3195727656E-02   0.6666764037E-01
   0.1334227548E+01   0.2572492862E+01   0.1991558785E+00   0.1422388264E-02   0.9658621545E-03  -0.8441245157E-03   0.0000000000E+00   0.0000000000E+00   0.0000000000E+00  -0.8779905873E+00  -0.1255407607E+01  -0.7845116063E+00  -0.9278044280E-01  -0.1748493937E-02   0.4280575454E-01
   0.1556838600E+01   0.2572023189E+01  -0.1506918100E-02   0.1697630061E-02   0.1099858868E-02  -0.1506918100E-02   0.0000000000E+00   0.0000000000E+00   0.0000000000E+00  -0.1474584638E+01  -0.1890280195E+01  -0.1382820071E+01  -0.1048788689E+00  -0.5478189221E-02   0.6928571362E-01
   0.1556892643E+01   0.2571959979E+01   0.1990838217E+00   0.1751673454E-02   0.1036648883E-02  -0.9161812677E-03   0.0000000000E+00   0.0000000000E+00   0.0000000000E+00  -0.9721699065E+00  -0.1377731338E+01  -0.8789904459E+00  -0.1197930522E+00  -0.2854400562E-02   0.4635674940E-01
   0.1779622752E+01   0.2571955149E+01  -0.1672514432E-02   0.2068362382E-02   0.1190609368E-02  -0.1672514432E-02   0.0000000000E+00   0.0000000000E+00   0.0000000000E+00  -0.1470908976E+01  -0.1922724646E+01  -0.1373253630E+01  -0.1068614090E+00  -0.3852328954E-01   0.7916485172E-01
   0.1779662627E+01   0.2571878706E+01   0.1989666751E+00   0.2108236736E-02   0.1114165739E-02  -0.1033327947E-02   0.0000000000E+00   0.0000000000E+00   0.0000000000E+00  -0.9579212575E+00  -0.1395841021E+01  -0.8560867522E+00  -0.1257059120E+00  -0.2188234745E-01   0.5500439334E-01
   0.2002465540E+01   0.2572191742E+01  -0.2102322995E-02   0.2465539898E-02   0.1470351923E-02  -0.2102322995E-02   0.0000000000E+00   0.0000000000E+00   0.0000000000E+00  -0.1997659285E+01  -0.2511920137E+01  -0.1853736423E+01  -0.1030773348E+00  -0.7291134483E-01   0.7339807856E-01
   0.2002485365E+01   0.2572110301E+01   0.1986889865E+00   0.2485365240E-02   0.1388910695E-02  -0.1311016534E-02   0.0000000000E+00   0.0000000000E+00   0.0000000000E+00  -0.1742515573E+01  -0.2241220570E+01  -0.1594012083E+01  -0.1267706189E+00  -0.4054310640E-01   0.5344873692E-01
   0.8896051947E+00   0.2366864633E+01  -0.1499196990E-02   0.1156598705E-02   0.1682713105E-02  -0.1499196990E-02   0.0000000000E+00   0.0000000000E+00   0.0000000000E+00  -0.6872851357E-01  -0.4854078474E+00   0.3767982510E-01  -0.2192191521E-01  -0.2144151633E-01   0.4101597641E-01
   0.8896872255E+00   0.2366827326E+01   0.1991276988E+00   0.1238629467E-02   0.1645405868E-02  -0.8723042159E-03   0.0000000000E+00   0.0000000000E+00   0.0000000000E+00   0.1222675273E+00  -0.2981827461E+00   0.2241697148E+00  -0.2459868313E-01  -0.1221395587E-01   0.2355989037E-01
   0.1111960612E+01   0.2361973901E+01  -0.1703207958E-02   0.1533831971E-02   0.1912731406E-02  -0.1703207958E-02   0.0000000000E+00   0.0000000000E+00   0.0000000000E+00  -0.1317436898E-01  -0.4813572575E+00   0.1020916097E+00  -0.4547210047E-01  -0.6595379435E-02   0.4497330476E-01
   0.1112052901E+01   0.2361929121E+01   0.1989933898E+00   0.1626120533E-02   0.1867950905E-02  -0.1006613196E-02   0.0000000000E+00   0.0000000000E+00   0.0000000000E+00   0.1357057418E+00  -0.3365049731E+00   0.2469675286E+00  -0.5023385896E-01  -0.3281608441E-02   0.2736247983E-01
   0.1334598244E+01   0.2359606594E+01  -0.1837026056E-02   0.1953663774E-02   0.2085294105E-02  -0.1837026056E-02   0.0000000000E+00   0.0000000000E+00   0.0000000000E+00   0.2571309338E-01  -0.4814759097E+00   0.1407757181E+00  -0.6707463867E-01   0.1554853044E-02   0.4493252083E-01
   0.1334700438E+01   0.2359551069E+01   0.1988984001E+00   0.2055857955E-02   0.2029768806E-02  -0.1101602865E-02   0.0000000000E+00   0.0000000000E+00   0.0000000000E+00   0.1607712603E+00  -0.3507969218E+00   0.2719092378E+00  -0.7348263594E-01   0.1367586572E-02   0.2914371045E-01
   0.1557433903E+01   0.2358749007E+01  -0.1963467881E-02   0.2411303026E-02   0.2239316608E-02  -0.1963467881E-02   0.0000000000E+00   0.0000000000E+00   0.0000000000E+00   0.5250952920E-01  -0.4877861414E+00   0.1669201869E+00  -0.8787043873E-01  -0.2601370980E-02   0.4448144423E-01
   0.1557546556E+01   0.2358678686E+01   0.1988038842E+00   0.2523956024E-02   0.2168996158E-02  -0.1196118767E-02   0.0000000000E+00   0.0000000000E+00   0.0000000000E+00   0.1897296122E+00  -0.3555700348E+00   0.3000228504E+00  -0.9699788986E-01  -0.1671459180E-02   0.3106216108E-01
   0.1780394607E+01   0.2358622420E+01  -0.2185392571E-02   0.2901126827E-02   0.2422440314E-02  -0.2185392571E-02   0.0000000000E+00   0.0000000000E+00   0.0000000000E+00   0.1189256128E+00  -0.4604188997E+00   0.2456149651E+00  -0.7874704333E-01  -0.2371984840E-01   0.4608501763E-01
   0.1780518478E+01   0.2358537862E+01   0.1986461404E+00   0.3024997544E-02   0.2337882265E-02  -0.1353862642E-02   0.0000000000E+00   0.0000000000E+00   0.0000000000E+00   0.2081536453E+00  -0.3772003164E+00   0.3309003588E+00  -0.9022091762E-01  -0.1509616550E-01   0.3493709495E-01
   0.2003413285E+01   0.2358954325E+01  -0.2566416757E-02   0.3413284771E-02   0.2867355058E-02  -0.2566416757E-02   0.0000000000E+00   0.0000000000E+00   0.0000000000E+00   0.1764108672E+00  -0.4517500937E+00   0.3405494007E+00  -0.6477659313E-01  -0.3768883809E-01   0.3501698701E-01
   0.2003548801E+01   0.2358864307E+01   0.1983885825E+00   0.3548801409E-02   0.2777337033E-02  -0.1611420473E-02   0.0000000000E+00   0.0000000000E+00   0.0000000000E+00   0.1187216175E+00  -0.5157938654E+00   0.2784679991E+00  -0.7935780455E-01  -0.2370743503E-01   0.2992888385E-01
   0.8898083738E+00   0.2156846916E+01  -0.1765469095E-02   0.1496033838E-02   0.2790845975E-02  -0.1765469095E-02   0.0000000000E+00   0.0000000000E+00   0.0000000000E+00  -0.2495153309E+00  -0.7690311456E+00  -0.1349681036E+00   0.2931574649E-02  -0.2852666710E-01   0.3048225416E-01
   0.8899048739E+00   0.2156814957E+01   0.1989802603E+00   0.1592533941E-02   0.2758887096E-02  -0.1019742664E-02   0.0000000000E+00   0.0000000000E+00   0.0000000000E+00  -0.1882582025E+00  -0.7137391439E+00  -0.7808022323E-01   0.1419974225E-02  -0.1582151171E-01   0.1652942668E-01
   0.1112227634E+01   0.2150269547E+01  -0.1998427263E-02   0.1982884260E-02   0.3157176907E-02  -0.1998427263E-02   0.0000000000E+00   0.0000000000E+00   0.0000000000E+00  -0.2175219215E+00  -0.7941506609E+00  -0.9292868384E-01  -0.2732699420E-01  -0.5359744605E-02   0.3165810847E-01
   0.1112337269E+01   0.2150233022E+01   0.1988250374E+00   0.2092519000E-02   0.3120651522E-02  -0.1174965630E-02   0.0000000000E+00   0.0000000000E+00   0.0000000000E+00  -0.1995838120E+00  -0.7842005085E+00  -0.7950781344E-01  -0.3072606634E-01  -0.1738126792E-02   0.1871255837E-01
   0.1334983723E+01   0.2147020767E+01  -0.2139966086E-02   0.2514382647E-02   0.3419587452E-02  -0.2139966086E-02   0.0000000000E+00   0.0000000000E+00   0.0000000000E+00  -0.2151231934E+00  -0.8310085585E+00  -0.9129192815E-01  -0.5225594712E-01   0.4643754477E-02   0.2920478638E-01
   0.1335109487E+01   0.2146976357E+01   0.1987212909E+00   0.2640147307E-02   0.3375176752E-02  -0.1278712127E-02   0.0000000000E+00   0.0000000000E+00   0.0000000000E+00  -0.1946855662E+00  -0.8212731295E+00  -0.7653810110E-01  -0.5643617434E-01   0.3980374730E-02   0.1897765350E-01
   0.1557972526E+01   0.2145792003E+01  -0.2277775869E-02   0.3082016426E-02   0.3645893054E-02  -0.2277775869E-02   0.0000000000E+00   0.0000000000E+00   0.0000000000E+00  -0.2241890694E+00  -0.8715266303E+00  -0.1005468080E+00  -0.7024054000E-01  -0.4286222302E-04   0.2708446388E-01
   0.1558119835E+01   0.2145736662E+01   0.1986145491E+00   0.3229325257E-02   0.3590551953E-02  -0.1385453857E-02   0.0000000000E+00   0.0000000000E+00   0.0000000000E+00  -0.1752027188E+00  -0.8371240986E+00  -0.5909873584E-01  -0.7588701926E-01   0.3670528582E-03   0.1962045870E-01
   0.1781102359E+01   0.2145588161E+01  -0.2514649124E-02   0.3677549130E-02   0.3926281371E-02  -0.2514649124E-02   0.0000000000E+00   0.0000000000E+00   0.0000000000E+00  -0.2138608188E+00  -0.8975202173E+00  -0.7633877250E-01  -0.5404704631E-01  -0.1067705829E-01   0.2428212431E-01
   0.1781277871E+01   0.2145523685E+01   0.1984418943E+00   0.3853061180E-02   0.3861804927E-02  -0.1558108730E-02   0.0000000000E+00   0.0000000000E+00   0.0000000000E+00  -0.2058297588E+00  -0.9082503536E+00  -0.7759613325E-01  -0.6086605746E-01  -0.7486073729E-02   0.2046041909E-01
   0.2004290421E+01   0.2145958843E+01  -0.2828767943E-02   0.4290421040E-02   0.4497232524E-02  -0.2828767943E-02   0.0000000000E+00   0.0000000000E+00   0.0000000000E+00  -0.2817184417E+00  -0.1001172777E+01  -0.1174425876E+00  -0.3565900534E-01  -0.1023138052E-01   0.1367213587E-01
   0.2004499006E+01   0.2145890758E+01   0.1982165712E+00   0.4499005845E-02   0.4429148497E-02  -0.1783431825E-02   0.0000000000E+00   0.0000000000E+00   0.0000000000E+00  -0.3122736680E+00  -0.1052135510E+01  -0.1582762890E+00  -0.4435381860E-01  -0.8599055992E-02   0.1522914633E-01
   0.8900345377E+00   0.1947171141E+01  -0.1971090123E-02   0.1818399701E-02   0.4109671035E-02  -0.1971090123E-02   0.0000000000E+00   0.0000000000E+00   0.0000000000E+00  -0.1088166906E+00  -0.7229404485E+00   0.7852697584E-02   0.3125843963E-01  -0.3481676630E-01   0.2337988257E-01
   0.8901423277E+00   0.1947147890E+01   0.1988742685E+00   0.1926189703E-02   0.4086420184E-02  -0.1125734482E-02   0.0000000000E+00   0.0000000000E+00   0.0000000000E+00  -0.1780855419E+00  -0.7980083200E+00  -0.6483641455E-01   0.3125157620E-01  -0.1945757050E-01   0.1169183319E-01
   0.1112546651E+01   0.1938887830E+01  -0.2209893206E-02   0.2412530662E-02   0.4621379749E-02  -0.2209893206E-02   0.0000000000E+00   0.0000000000E+00   0.0000000000E+00  -0.4924485813E-01  -0.7214399682E+00   0.7641625674E-01  -0.1093126990E-01  -0.1482714827E-02   0.2211223032E-01
   0.1112666612E+01   0.1938865745E+01   0.1987123608E+00   0.2532491708E-02   0.4599294969E-02  -0.1287642228E-02   0.0000000000E+00   0.0000000000E+00   0.0000000000E+00  -0.1587958153E+00  -0.8402048640E+00  -0.3710086067E-01  -0.1256780508E-01   0.9204312218E-03   0.1242262224E-01
   0.1335433180E+01   0.1934727316E+01  -0.2340719219E-02   0.3051099671E-02   0.4969716142E-02  -0.2340719219E-02   0.0000000000E+00   0.0000000000E+00   0.0000000000E+00  -0.4427018373E-01  -0.7522293244E+00   0.7849911253E-01  -0.4027298679E-01   0.7350240590E-02   0.1837702831E-01
   0.1335570682E+01   0.1934703291E+01   0.1986115565E+00   0.3188602340E-02   0.4945690820E-02  -0.1388446537E-02   0.0000000000E+00   0.0000000000E+00   0.0000000000E+00  -0.1400402514E+00  -0.8615324607E+00  -0.2328051397E-01  -0.4170359286E-01   0.6065872635E-02   0.1169683742E-01
   0.1558569054E+01   0.1933097716E+01  -0.2473947537E-02   0.3722293810E-02   0.5261895892E-02  -0.2473947537E-02   0.0000000000E+00   0.0000000000E+00   0.0000000000E+00  -0.4955960338E-01  -0.7844484041E+00   0.7209936661E-01  -0.5607820813E-01   0.3391990101E-02   0.1558893162E-01
   0.1558732676E+01   0.1933070711E+01   0.1985030192E+00   0.3885916171E-02   0.5234890710E-02  -0.1496983802E-02   0.0000000000E+00   0.0000000000E+00   0.0000000000E+00  -0.1062861182E+00  -0.8605621151E+00   0.6449590097E-02  -0.5765546256E-01   0.2884504275E-02   0.1147657240E-01
   0.1781848575E+01   0.1932787174E+01  -0.2694491527E-02   0.4416135280E-02   0.5628584111E-02  -0.2694491527E-02   0.0000000000E+00   0.0000000000E+00   0.0000000000E+00  -0.4883389681E-01  -0.8129548800E+00   0.8441563821E-01  -0.3635295686E-01  -0.1135890199E-02   0.1078267296E-01
   0.1782048447E+01   0.1932759785E+01   0.1983348804E+00   0.4616006744E-02   0.5601195373E-02  -0.1665122600E-02   0.0000000000E+00   0.0000000000E+00   0.0000000000E+00  -0.1387205038E+00  -0.9281700995E+00  -0.1722151688E-01  -0.3828915706E-01  -0.1453924910E-02   0.1042256791E-01
   0.2005122274E+01   0.1933132557E+01  -0.2954915788E-02   0.5122273881E-02   0.6288437396E-02  -0.2954915788E-02   0.0000000000E+00   0.0000000000E+00   0.0000000000E+00  -0.6562422677E-01  -0.8542547157E+00   0.8593726077E-01  -0.1756602322E-01   0.5478445367E-02   0.3955206710E-02
   0.2005365699E+01   0.1933104685E+01   0.1981353765E+00   0.5365698761E-02   0.6260564525E-02  -0.1864626538E-02   0.0000000000E+00   0.0000000000E+00   0.0000000000E+00  -0.1345865721E+00  -0.9508378405E+00   0.3893360483E-02  -0.2052432163E-01   0.8427125574E-03   0.6908077156E-02
   0.8907079178E+00   0.1737732388E+01  -0.2129997887E-02   0.2128608796E-02   0.5625467917E-02  -0.2129997887E-02   0.0000000000E+00   0.0000000000E+00   0.0000000000E+00  -0.7939259211E-01  -0.7858031263E+00   0.3428789474E-01   0.6024243985E-01  -0.3912674162E-01   0.1971753580E-01
   0.8908249223E+00   0.1737716653E+01   0.1988018340E+00   0.2245613276E-02   0.5609732944E-02  -0.1198168964E-02   0.0000000000E+00   0.0000000000E+00   0.0000000000E+00  -0.2394048049E+00  -0.9487453228E+00  -0.1271846679E+00   0.6226571243E-01  -0.2228351423E-01   0.8956095680E-02
   0.1113534055E+01   0.1727770643E+01  -0.2347157274E-02   0.2832495144E-02   0.6278592875E-02  -0.2347157274E-02   0.0000000000E+00   0.0000000000E+00   0.0000000000E+00  -0.5318021276E-02  -0.7661665238E+00   0.1133923694E+00   0.1224417969E-02   0.5261763169E-02   0.1404935616E-01
   0.1113658320E+01   0.1727764182E+01   0.1986502998E+00   0.2956760278E-02   0.6272132012E-02  -0.1349703214E-02   0.0000000000E+00   0.0000000000E+00   0.0000000000E+00  -0.1873653892E+00  -0.9559194294E+00  -0.7104436896E-01   0.1684981170E-02   0.4964681860E-02   0.7181316355E-02
   0.1336609049E+01   0.1722717340E+01  -0.2451410010E-02   0.3578108953E-02   0.6699620285E-02  -0.2451410010E-02   0.0000000000E+00   0.0000000000E+00   0.0000000000E+00  -0.1366382005E-01  -0.8038957032E+00   0.9879581626E-01  -0.3228987969E-01   0.9697536589E-02   0.9056103067E-02
   0.1336748034E+01   0.1722716840E+01   0.1985628319E+00   0.3717093579E-02   0.6699120494E-02  -0.1437171149E-02   0.0000000000E+00   0.0000000000E+00   0.0000000000E+00  -0.1661212107E+00  -0.9695390919E+00  -0.5885225657E-01  -0.3080004366E-01   0.7653867602E-02   0.5487164469E-02
   0.1559813492E+01   0.1720675899E+01  -0.2566601729E-02   0.4350652075E-02   0.7044149359E-02  -0.2566601729E-02   0.0000000000E+00   0.0000000000E+00   0.0000000000E+00  -0.2906369736E-01  -0.8392794033E+00   0.8037000472E-01  -0.4730949468E-01   0.7034610373E-02   0.6496849504E-02
   0.1559977969E+01   0.1720682605E+01   0.1984614553E+00   0.4515129114E-02   0.7050854770E-02  -0.1538547735E-02   0.0000000000E+00   0.0000000000E+00   0.0000000000E+00  -0.1306332772E+00  -0.9609897178E+00  -0.2998532946E-01  -0.4485370389E-01   0.5272811992E-02   0.4916947548E-02
   0.1782996587E+01   0.1720223724E+01  -0.2752452854E-02   0.5138687246E-02   0.7475434203E-02  -0.2752452854E-02   0.0000000000E+00   0.0000000000E+00   0.0000000000E+00  -0.3538562261E-01  -0.8649633215E+00   0.8133630152E-01  -0.2595208756E-01   0.4474139726E-02   0.2060391812E-02
   0.1783198514E+01   0.1720240592E+01   0.1983095014E+00   0.5340613732E-02   0.7492301727E-02  -0.1690501554E-02   0.0000000000E+00   0.0000000000E+00   0.0000000000E+00  -0.1523491270E+00  -0.1008825114E+01  -0.4771986699E-01  -0.2358341260E-01   0.2210614434E-02   0.3325036175E-02
   0.2005932990E+01   0.1720475179E+01  -0.2976279189E-02   0.5932989792E-02   0.8195498849E-02  -0.2976279189E-02   0.0000000000E+00   0.0000000000E+00   0.0000000000E+00  -0.6294157969E-01  -0.9087243484E+00   0.6648256261E-01  -0.7747720892E-02   0.1112895321E-01  -0.1745080205E-02
   0.2006180744E+01   0.1720495060E+01   0.1981269820E+00   0.6180744279E-02   0.8215379610E-02  -0.1873021013E-02   0.0000000000E+00   0.0000000000E+00   0.0000000000E+00  -0.1343090969E+00  -0.1009484705E+01  -0.1855358941E-01  -0.6184885097E-02   0.4673257027E-02   0.1060644217E-02
   0.8934072433E+00   0.1527900668E+01  -0.2252130328E-02   0.2442795265E-02   0.7341478406E-02  -0.2252130328E-02   0.0000000000E+00   0.0000000000E+00   0.0000000000E+00  -0.6244946305E-01  -0.8597055216E+00   0.4491065639E-01   0.9267963014E-01  -0.3907562211E-01   0.6138712410E-02
   0.8935316687E+00   0.1527886408E+01   0.1987577610E+00   0.2567220687E-02   0.7327218231E-02  -0.1242242017E-02   0.0000000000E+00   0.0000000000E+00   0.0000000000E+00  -0.2858730337E+00  -0.1080087747E+01  -0.1769139752E+00   0.9634168972E-01  -0.2274243781E-01   0.9396333834E-03
   0.1117086816E+01   0.1516591044E+01  -0.2410140037E-02   0.3262206020E-02   0.8114544073E-02  -0.2410140037E-02   0.0000000000E+00   0.0000000000E+00   0.0000000000E+00   0.3996463578E-01  -0.8050070928E+00   0.1426534142E+00   0.7254264383E-02   0.1482914430E-01   0.8446279361E-03
   0.1117209278E+01   0.1516596677E+01   0.1986396467E+00   0.3384667915E-02   0.8120177479E-02  -0.1360356309E-02   0.0000000000E+00   0.0000000000E+00   0.0000000000E+00  -0.1709399972E+00  -0.1019331815E+01  -0.6808926363E-01   0.9758114853E-02   0.1063201413E-01  -0.6934867524E-03
   0.1340288620E+01   0.1510898307E+01  -0.2474752125E-02   0.4119380060E-02   0.8584696733E-02  -0.2474752125E-02   0.0000000000E+00   0.0000000000E+00   0.0000000000E+00   0.2332082534E-01  -0.8426025445E+00   0.1151198228E+00  -0.3015043847E-01   0.1102528952E-01  -0.1547570935E-02
   0.1340419052E+01   0.1510919329E+01   0.1985740030E+00   0.4249812155E-02   0.8605719437E-02  -0.1425999985E-02   0.0000000000E+00   0.0000000000E+00   0.0000000000E+00  -0.1398986586E+00  -0.1015925647E+01  -0.5151094165E-01  -0.2565832178E-01   0.8560612437E-02  -0.1274841603E-02
   0.1563018070E+01   0.1508539950E+01  -0.2563921322E-02   0.4994500082E-02   0.8960879815E-02  -0.2563921322E-02   0.0000000000E+00   0.0000000000E+00   0.0000000000E+00   0.7019089038E-02  -0.8699155269E+00   0.9362538813E-01  -0.4640591364E-01   0.9393792244E-02  -0.1937303437E-02
   0.1563168993E+01   0.1508579587E+01   0.1984853084E+00   0.5145423085E-02   0.9000516515E-02  -0.1514694624E-02   0.0000000000E+00   0.0000000000E+00   0.0000000000E+00  -0.1040415404E+00  -0.9987046694E+00  -0.2485175437E-01  -0.3989247581E-01   0.6795982957E-02  -0.1099198417E-02
   0.1785223112E+01   0.1507954633E+01  -0.2707427246E-02   0.5874502152E-02   0.9428062768E-02  -0.2707427246E-02   0.0000000000E+00   0.0000000000E+00   0.0000000000E+00   0.4741370795E-02  -0.8798825632E+00   0.9405318598E-01  -0.2420939148E-01   0.6282660850E-02  -0.4360859423E-02
   0.1785407270E+01   0.1508015624E+01   0.1983549333E+00   0.6058659992E-02   0.9489053620E-02  -0.1645069725E-02   0.0000000000E+00   0.0000000000E+00   0.0000000000E+00  -0.1077173441E+00  -0.1017098427E+01  -0.2924409204E-01  -0.1777869267E-01   0.3570624931E-02  -0.2207500575E-02
   0.2006752882E+01   0.1508082580E+01  -0.2902061439E-02   0.6752882007E-02   0.1018447967E-01  -0.2902061439E-02   0.0000000000E+00   0.0000000000E+00   0.0000000000E+00  -0.2357382968E-01  -0.9172170844E+00   0.7441123270E-01  -0.6119536665E-02   0.9896026817E-02  -0.7146154965E-02
   0.2006978849E+01   0.1508149895E+01   0.1981862476E+00   0.6978849496E-02   0.1025179474E-01  -0.1813755436E-02   0.0000000000E+00   0.0000000000E+00   0.0000000000E+00  -0.9421415172E-01  -0.1015081313E+01  -0.8811253095E-02  -0.5897637662E-03   0.4527134640E-02  -0.4433078571E-02
   0.9011878594E+00   0.1315753100E+01  -0.2307808499E-02   0.2781949430E-02   0.9285329754E-02  -0.2307808499E-02   0.0000000000E+00   0.0000000000E+00   0.0000000000E+00  -0.3224271319E-02  -0.8901060518E+00   0.8741762124E-01   0.1088367605E+00  -0.3085927320E-01   0.7212460132E-02
   0.9013178530E+00   0.1315728700E+01   0.1987587061E+00   0.2911943015E-02   0.9260929852E-02  -0.1241296891E-02   0.0000000000E+00   0.0000000000E+00   0.0000000000E+00  -0.2595141744E+00  -0.1132806753E+01  -0.1613796619E+00   0.1181805784E+00  -0.1837004606E-01   0.1219358577E-02
   0.1126419262E+01   0.1304380515E+01  -0.2381959493E-02   0.3735142354E-02   0.1012883493E-01  -0.2381959493E-02   0.0000000000E+00   0.0000000000E+00   0.0000000000E+00   0.8141979492E-01  -0.8471667376E+00   0.1534738121E+00   0.1326975753E-02   0.2358659396E-01  -0.5662200216E-02
   0.1126531403E+01   0.1304389960E+01   0.1986904231E+00   0.3847283327E-02   0.1013827963E-01  -0.1309579908E-02   0.0000000000E+00   0.0000000000E+00   0.0000000000E+00  -0.1002273762E+00  -0.1024815396E+01  -0.2399005878E-01   0.8782213600E-02   0.1607654574E-01  -0.4788151425E-02
   0.1349038161E+01   0.1298887829E+01  -0.2407270451E-02   0.4712380741E-02   0.1061079868E-01  -0.2407270451E-02   0.0000000000E+00   0.0000000000E+00   0.0000000000E+00   0.4602733942E-01  -0.8928069996E+00   0.1044076339E+00  -0.3464429778E-01   0.9733160583E-02  -0.1207144571E-01
   0.1349147148E+01   0.1298924057E+01   0.1986474885E+00   0.4821368322E-02   0.1064702670E-01  -0.1352514521E-02   0.0000000000E+00   0.0000000000E+00   0.0000000000E+00  -0.9893821969E-01  -0.1042262102E+01  -0.4122645532E-01  -0.2492857905E-01   0.8111003857E-02  -0.8037294873E-02
   0.1569836869E+01   0.1296596220E+01  -0.2467612889E-02   0.5692018703E-02   0.1099006967E-01  -0.2467612889E-02   0.0000000000E+00   0.0000000000E+00   0.0000000000E+00   0.1976541064E-01  -0.9196175412E+00   0.7143917771E-01  -0.5359165382E-01   0.8761891097E-02  -0.1243213612E-01
   0.1569957625E+01   0.1296663216E+01   0.1985740114E+00   0.5812775139E-02   0.1105706550E-01  -0.1425991607E-02   0.0000000000E+00   0.0000000000E+00   0.0000000000E+00  -0.6832029499E-01  -0.1020356374E+01  -0.2174853776E-01  -0.4131351483E-01   0.6803618466E-02  -0.8239942935E-02
   0.1789303346E+01   0.1295999544E+01  -0.2566950855E-02   0.6662766209E-02   0.1145996398E-01  -0.2566950855E-02   0.0000000000E+00   0.0000000000E+00   0.0000000000E+00   0.2311798715E-01  -0.9114208595E+00   0.7346968836E-01  -0.3189293622E-01   0.4445160346E-02  -0.1346029384E-01
   0.1789448590E+01   0.1296098672E+01   0.1984673001E+00   0.6808010044E-02   0.1155909230E-01  -0.1532702943E-02   0.0000000000E+00   0.0000000000E+00   0.0000000000E+00  -0.5958087442E-01  -0.1013514139E+01  -0.1756820755E-01  -0.1998551849E-01   0.3166999028E-02  -0.9017347704E-02
   0.2007622598E+01   0.1296063429E+01  -0.2724106822E-02   0.7622598003E-02   0.1222658880E-01  -0.2724106822E-02   0.0000000000E+00   0.0000000000E+00   0.0000000000E+00  -0.8384844020E-02  -0.9436570906E+00   0.4606408208E-01  -0.1456873383E-01   0.4703332868E-02  -0.1817875214E-01
   0.2007800308E+01   0.1296171605E+01   0.1983185499E+00   0.7800307681E-02   0.1233476501E-01  -0.1681453080E-02   0.0000000000E+00   0.0000000000E+00   0.0000000000E+00  -0.6517463455E-01  -0.1022095609E+01  -0.2083327586E-01  -0.3741408948E-02   0.2657432450E-02  -0.1291599753E-01
   0.9183517477E+00   0.1097553915E+01  -0.2317366118E-02   0.3199376684E-02   0.1150900515E-01  -0.2317366118E-02   0.0000000000E+00   0.0000000000E+00   0.0000000000E+00  -0.1796954122E+00  -0.1142714996E+01  -0.1013195888E+00   0.1602243024E+00  -0.9850110922E-02  -0.6165187250E-01
   0.9184803995E+00   0.1097501009E+01   0.1987988606E+00   0.3328028521E-02   0.1145609910E-01  -0.1201142385E-02   0.0000000000E+00   0.0000000000E+00   0.0000000000E+00  -0.2793895573E+00  -0.1214935039E+01  -0.1884588124E+00   0.1657599327E+00  -0.6100364237E-02  -0.3730274073E-01
   0.1145127598E+01   0.1089639055E+01  -0.2256355338E-02   0.4285637818E-02   0.1233016480E-01  -0.2256355338E-02   0.0000000000E+00   0.0000000000E+00   0.0000000000E+00  -0.6832354603E-02  -0.1023342606E+01   0.1923050424E-01   0.9263352441E-04   0.3250730084E-01  -0.5090364011E-01
   0.1145219434E+01   0.1089638986E+01   0.1988105664E+00   0.4377474318E-02   0.1233009619E-01  -0.1189436588E-02   0.0000000000E+00   0.0000000000E+00   0.0000000000E+00  -0.7171389462E-01  -0.1073220156E+01  -0.3751960950E-01   0.4487578151E-02   0.2290477384E-01  -0.3057003601E-01
   0.1365140552E+01   0.1086115411E+01  -0.2226507436E-02   0.5387891996E-02   0.1276951126E-01  -0.2226507436E-02   0.0000000000E+00   0.0000000000E+00   0.0000000000E+00  -0.1315952519E-01  -0.1026137920E+01  -0.6691070526E-02  -0.4154794095E-01   0.7172567329E-02  -0.4120924426E-01
   0.1365217001E+01   0.1086156953E+01   0.1987977258E+00   0.5464340699E-02   0.1281105296E-01  -0.1202277195E-02   0.0000000000E+00   0.0000000000E+00   0.0000000000E+00  -0.6225198850E-02  -0.1015908240E+01   0.2464044782E-02  -0.3374220936E-01   0.8442358987E-02  -0.2512385939E-01
   0.1581503304E+01   0.1084637233E+01  -0.2256847190E-02   0.6478464255E-02   0.1311595330E-01  -0.2256847190E-02   0.0000000000E+00   0.0000000000E+00   0.0000000000E+00   0.8563033558E-02  -0.9954408431E+00   0.5690050291E-02  -0.6953653644E-01   0.4074197575E-02  -0.3084287524E-01
   0.1581580409E+01   0.1084721965E+01   0.1987399093E+00   0.6555569248E-02   0.1320068489E-01  -0.1260093698E-02   0.0000000000E+00   0.0000000000E+00   0.0000000000E+00   0.1994835896E-01  -0.9890064375E+00   0.1528608229E-01  -0.5851283620E-01   0.6375422979E-02  -0.1952154934E-01
   0.1795757735E+01   0.1084279214E+01  -0.2314401651E-02   0.7546505115E-02   0.1355329384E-01  -0.2314401651E-02   0.0000000000E+00   0.0000000000E+00   0.0000000000E+00   0.4548946049E-01  -0.9404577314E+00   0.3837108831E-01  -0.5032525720E-01  -0.6589402159E-04  -0.2612343450E-01
   0.1795846799E+01   0.1084405291E+01   0.1986562234E+00   0.7635568780E-02   0.1367937066E-01  -0.1343779556E-02   0.0000000000E+00   0.0000000000E+00   0.0000000000E+00   0.2657299775E-01  -0.9704241972E+00   0.1503086226E-01  -0.3989289768E-01   0.3321748799E-02  -0.1728428583E-01
   0.2008594198E+01   0.1084400433E+01  -0.2412083756E-02   0.8594197907E-02   0.1429571265E-01  -0.2412083756E-02   0.0000000000E+00   0.0000000000E+00   0.0000000000E+00   0.3453006533E-01  -0.9406395648E+00   0.2440958059E-01  -0.3409033488E-01  -0.1217082547E-02  -0.3365418811E-01
   0.2008701592E+01   0.1084537381E+01   0.1985413936E+00   0.8701592158E-02   0.1443266088E-01  -0.1458609402E-02   0.0000000000E+00   0.0000000000E+00   0.0000000000E+00   0.6863060583E-02  -0.9812219075E+00  -0.9109994418E-02  -0.2505245700E-01   0.2720468283E-02  -0.2329747947E-01
  -0.1799973793E+01  -0.6148961131E+00   0.4013494450E+00  -0.1313979283E-01   0.3500658791E-01   0.1349438978E-02   0.0000000000E+00   0.0000000000E+00   0.0000000000E+00   0.4677928337E-01  -0.1117154084E+01  -0.2669687305E-01  -0.6372636936E-01  -0.3406815874E-02   0.3254124253E-02
  -0.1807515683E+01  -0.4010038277E+00   0.4010279585E+00  -0.1367623302E-01   0.3256706426E-01   0.1027952542E-02   0.0000000000E+00   0.0000000000E+00   0.0000000000E+00   0.1129784212E+00  -0.1052891940E+01   0.3123258376E-01  -0.5656186283E-01  -0.4006415537E-03  -0.3967138189E-02
  -0.2014951939E+01  -0.3997012480E+00   0.4009169862E+00  -0.1495193898E-01   0.3242312796E-01   0.9169802426E-03   0.0000000000E+00   0.0000000000E+00   0.0000000000E+00   0.1936208279E+00  -0.9174803765E+00   0.7302478641E-01  -0.3093526399E-01  -0.5990294377E-02   0.3092628970E-02
  -0.2014453707E+01  -0.6132165877E+00   0.4012048645E+00  -0.1445370728E-01   0.3472428628E-01   0.1204858475E-02   0.0000000000E+00   0.0000000000E+00   0.0000000000E+00   0.1125309311E+00  -0.1016541688E+01   0.1606339777E-01  -0.4783601030E-01  -0.5979843416E-02   0.1034976343E-01
  -0.1814188117E+01  -0.1908706728E+00   0.4006893627E+00  -0.1404082673E-01   0.3018119922E-01   0.6893566646E-03   0.0000000000E+00   0.0000000000E+00   0.0000000000E+00  -0.2369547629E-01  -0.1155780352E+01  -0.4424024951E-01  -0.4401835020E-01   0.1897143682E-02  -0.7877068194E-02
  -0.2015186341E+01  -0.1887674130E+00   0.4006095297E+00  -0.1518634081E-01   0.3021033599E-01   0.6095237011E-03   0.0000000000E+00   0.0000000000E+00   0.0000000000E+00   0.1384583768E+00  -0.9276875222E+00   0.5922468654E-01  -0.1940041193E-01  -0.5339177770E-02  -0.2621188654E-02
  -0.1819112371E+01   0.1557569844E-01   0.4004028617E+00  -0.1404435117E-01   0.2784704644E-01   0.4028556705E-03   0.0000000000E+00   0.0000000000E+00   0.0000000000E+00  -0.8118058557E-01  -0.1190982030E+01  -0.6402824146E-01  -0.2904952416E-02   0.3346113444E-02  -0.1081220262E-02
  -0.2015103812E+01   0.1671132820E-01   0.4003401669E+00  -0.1510381166E-01   0.2809364420E-01   0.3401608937E-03   0.0000000000E+00   0.0000000000E+00   0.0000000000E+00   0.1390412594E+00  -0.9010360020E+00   0.9026772911E-01  -0.5799620754E-03  -0.3944817152E-02   0.2441770674E-03
  -0.1583544591E+01  -0.6185143481E+00   0.4014878160E+00  -0.1179025059E-01   0.3514451885E-01   0.1487809964E-02   0.0000000000E+00   0.0000000000E+00   0.0000000000E+00   0.4091749111E-01  -0.1153647775E+01  -0.2204784737E-01  -0.6709491178E-01  -0.2348343167E-02   0.2912398345E-02
  -0.1598825046E+01  -0.4031542472E+00   0.4011496233E+00  -0.1236481625E-01   0.3259325680E-01   0.1149617324E-02   0.0000000000E+00   0.0000000000E+00   0.0000000000E+00   0.1501432218E+00  -0.1057487202E+01   0.8016912576E-01  -0.7394269893E-01   0.3236864743E-02  -0.6454011550E-02
  -0.1613817316E+01  -0.1913608616E+00   0.4007818735E+00  -0.1289091613E-01   0.3007566837E-01   0.7818675410E-03   0.0000000000E+00   0.0000000000E+00   0.0000000000E+00   0.1017895724E-01  -0.1162868157E+01   0.2067545501E-01  -0.6265727434E-01   0.6643687269E-02  -0.1084500211E-01
  -0.1627286351E+01   0.1894256035E-01   0.4004747329E+00  -0.1299766079E-01   0.2757517135E-01   0.4747268795E-03   0.0000000000E+00   0.0000000000E+00   0.0000000000E+00  -0.3603578215E-01  -0.1188638542E+01   0.1910795925E-01   0.2646554467E-02   0.8257859449E-02  -0.1718442690E-02
  -0.1362623477E+01  -0.6252150086E+00   0.4016154535E+00  -0.1037874708E-01   0.3534363244E-01   0.1615447460E-02   0.0000000000E+00   0.0000000000E+00   0.0000000000E+00   0.2039113349E-01  -0.1212644123E+01  -0.4290378702E-01  -0.5152227789E-01  -0.2521762237E-02   0.3013131668E-02
  -0.1388724190E+01  -0.4059717706E+00   0.4012594700E+00  -0.1100311969E-01   0.3265082339E-01   0.1259463959E-02   0.0000000000E+00   0.0000000000E+00   0.0000000000E+00   0.1523217449E+00  -0.1107391238E+01   0.7825749449E-01  -0.8151447729E-01   0.4028813843E-02  -0.9196099949E-02
  -0.1414247586E+01  -0.1927004222E+00   0.4008608357E+00  -0.1173098593E-01   0.3000976980E-01   0.8608296529E-03   0.0000000000E+00   0.0000000000E+00   0.0000000000E+00  -0.7148156674E-01  -0.1287319095E+01  -0.3965065601E-01  -0.8116691086E-01   0.7925641536E-02  -0.1458618250E-01
  -0.1434582019E+01   0.1720521514E-01   0.4005398395E+00  -0.1194598921E-01   0.2740369314E-01   0.5398334536E-03   0.0000000000E+00   0.0000000000E+00   0.0000000000E+00  -0.1204760057E+00  -0.1313258235E+01  -0.3416931854E-01   0.1645552702E-02   0.9306946367E-02  -0.2630407248E-02
  -0.1130766970E+01  -0.6356332878E+00   0.4017169724E+00  -0.8866169814E-02   0.3582173816E-01   0.1716966354E-02   0.0000000000E+00   0.0000000000E+00   0.0000000000E+00   0.9785160961E-01  -0.1137231470E+01   0.6337554621E-01   0.7495385024E-01  -0.6896447796E-02   0.4494679975E-02
  -0.1178661091E+01  -0.4080743338E+00   0.4013233688E+00  -0.9604670570E-02   0.3285275416E-01   0.1323362771E-02   0.0000000000E+00   0.0000000000E+00   0.0000000000E+00   0.2255688633E+00  -0.1042033031E+01   0.1892465411E+00  -0.6318499315E-02  -0.7293539813E-02  -0.1663397363E-01
  -0.1219157252E+01  -0.1925950963E+00   0.4008945228E+00  -0.1058534168E-01   0.3001341072E-01   0.8945168400E-03   0.0000000000E+00   0.0000000000E+00   0.0000000000E+00   0.6815585221E-01  -0.1177251761E+01   0.1458037363E+00  -0.5347379436E-01  -0.4693216539E-02  -0.2006208977E-01
  -0.1246142182E+01   0.1554752371E-01   0.4005672629E+00  -0.1090565243E-01   0.2727032671E-01   0.5672568982E-03   0.0000000000E+00   0.0000000000E+00   0.0000000000E+00  -0.2459124407E-02  -0.1245628216E+01   0.1235908717E+00   0.2461814986E-01  -0.1757862926E-02  -0.3440992809E-02
  -0.8658167689E+00  -0.6493337690E+00   0.4018055962E+00  -0.7228072904E-02   0.3762251700E-01   0.1805590192E-02   0.0000000000E+00   0.0000000000E+00   0.0000000000E+00   0.2680539709E-01  -0.1173466518E+01   0.3930387374E-01   0.2255369943E+00   0.7246464604E-02  -0.1984248753E-01
  -0.9762029091E+00  -0.3993963934E+00   0.4012074613E+00  -0.8382145067E-02   0.3365107965E-01   0.1207455314E-02   0.0000000000E+00   0.0000000000E+00   0.0000000000E+00  -0.3668804720E-01  -0.1339089529E+01   0.8599807910E-01   0.7974580379E-01  -0.3464588166E-01  -0.3812483518E-01
  -0.1037027255E+01  -0.1847762048E+00   0.4007789712E+00  -0.9548915120E-02   0.3029776816E-01   0.7789652133E-03   0.0000000000E+00   0.0000000000E+00   0.0000000000E+00  -0.3141099354E+00  -0.1704000348E+01  -0.1354918116E+00  -0.2007653827E-01  -0.2659016223E-01  -0.2291010209E-01
  -0.1067630230E+01   0.1500069529E-01   0.4004728739E+00  -0.9897649679E-02   0.2726200429E-01   0.4728678686E-03   0.0000000000E+00   0.0000000000E+00   0.0000000000E+00  -0.3932779772E+00  -0.1772416025E+01  -0.1736124299E+00   0.1625196664E-01  -0.2470562469E-01  -0.2614783522E-02
  -0.8830145821E+00  -0.1680516835E+00   0.4005413051E+00  -0.8632563119E-02   0.3036760454E-01   0.5412990972E-03   0.0000000000E+00   0.0000000000E+00   0.0000000000E+00   0.4536725535E+00  -0.1146886197E+01   0.7808193241E+00   0.6966574788E-02  -0.6048073936E-01  -0.3051979506E-01
  -0.9111359992E+00   0.2187398734E-01   0.4002565893E+00  -0.8950082154E-02   0.2692652934E-01   0.2565833200E-03   0.0000000000E+00   0.0000000000E+00   0.0000000000E+00   0.1007165226E+00  -0.1492837414E+01   0.4601105111E+00  -0.1744536939E-01  -0.5891647919E-01  -0.7188341204E-02
  -0.7395015652E+00  -0.1344481480E+00   0.4001288772E+00  -0.7814198160E-02   0.3027451801E-01   0.1288711720E-03   0.0000000000E+00   0.0000000000E+00   0.0000000000E+00  -0.2425600825E+01  -0.4257774191E+01  -0.1818390765E+01   0.1022506404E+00  -0.8409258065E-01  -0.4950676779E-01
  -0.7579700704E+00   0.2665015291E-01   0.3998865372E+00  -0.7970070409E-02   0.2665015291E-01  -0.1134688169E-03   0.0000000000E+00   0.0000000000E+00   0.0000000000E+00  -0.1963358204E+01  -0.3850055434E+01  -0.1357984133E+01   0.5445590929E-02  -0.8725590686E-01  -0.3052101208E-02
  -0.8228285195E+00  -0.3600666987E+00   0.4009239141E+00  -0.7625687530E-02   0.3401268830E-01   0.9239081087E-03   0.0000000000E+00   0.0000000000E+00   0.0000000000E+00  -0.4848719332E+00  -0.1942641957E+01  -0.1750296302E+00   0.1373255973E+00  -0.3512104193E-01  -0.6361483389E-01
  -0.6838043850E+00  -0.2892951789E+00   0.4005611467E+00  -0.7034532020E-02   0.3394241915E-01   0.5611407387E-03   0.0000000000E+00   0.0000000000E+00   0.0000000000E+00  -0.1542826285E+01  -0.3225167693E+01  -0.1064468159E+01   0.2114349127E+00  -0.1125092378E-01  -0.9808747998E-01
  -0.7201056843E+00  -0.5267053036E+00   0.4015147065E+00  -0.6627655269E-02   0.3747518939E-01   0.1514700525E-02   0.0000000000E+00   0.0000000000E+00   0.0000000000E+00  -0.5399453126E-01  -0.1361109467E+01   0.2504477131E-01   0.2862685648E+00   0.2955107332E-01  -0.8122617160E-01
  -0.5945603960E+00  -0.4274620052E+00   0.4012128654E+00  -0.6022106954E-02   0.3742793878E-01   0.1212859436E-02   0.0000000000E+00   0.0000000000E+00   0.0000000000E+00  -0.6160965525E+00  -0.2184654642E+01  -0.5114627841E+00   0.3212338523E+00   0.4612847098E-01  -0.1076903545E+00
  -0.5674177645E+00  -0.6551985441E+00   0.4021353361E+00  -0.5369806468E-02   0.4079487889E-01   0.2135330108E-02   0.0000000000E+00   0.0000000000E+00   0.0000000000E+00   0.8831403877E+00  -0.2829917278E+00   0.6542560400E+00   0.3535782917E+00   0.5149017622E-01  -0.3968563850E-01
  -0.4744266643E+00  -0.5440831192E+00   0.4018741014E+00  -0.4841186309E-02   0.4071551476E-01   0.1874095355E-02   0.0000000000E+00   0.0000000000E+00   0.0000000000E+00  -0.4292958748E+00  -0.1740938461E+01  -0.6591495239E+00   0.4020074245E+00   0.6253161993E-01  -0.7623188664E-01
  -0.3792962490E+00  -0.7484181709E+00   0.4025673382E+00  -0.4031574952E-02   0.4382745506E-01   0.2567332205E-02   0.0000000000E+00   0.0000000000E+00   0.0000000000E+00   0.6190813007E+00  -0.3517715013E+00   0.2454464344E+00   0.3539608404E+00   0.4157918811E-01   0.1021652608E-02
  -0.3276022601E+00  -0.6329990664E+00   0.4023613941E+00  -0.3700368099E-02   0.4345315258E-01   0.2361388066E-02   0.0000000000E+00   0.0000000000E+00   0.0000000000E+00   0.1466323644E+00  -0.8400396544E+00  -0.2506663319E+00   0.3648948613E+00   0.5560050160E-01  -0.1713812505E-01
  -0.1862770969E+00  -0.8083718426E+00   0.4028425784E+00  -0.2839167866E-02   0.4580473840E-01   0.2842572395E-02   0.0000000000E+00   0.0000000000E+00   0.0000000000E+00   0.7428348784E+00  -0.3866092029E-01   0.3113440503E+00   0.2086953365E+00   0.2207235568E-01   0.1307254062E-01
  -0.1638568083E+00  -0.6872380440E+00   0.4026229290E+00  -0.2649147257E-02   0.4523181301E-01   0.2622923045E-02   0.0000000000E+00   0.0000000000E+00   0.0000000000E+00   0.8618905141E-01  -0.6766524747E+00  -0.3652589081E+00   0.1932779445E+00   0.2287304080E-01   0.8196803439E-02
   0.7341389285E-02  -0.8344204029E+00   0.4029358135E+00  -0.1752280715E-02   0.4627100615E-01   0.2935807514E-02   0.0000000000E+00   0.0000000000E+00   0.0000000000E+00   0.8372082738E+00   0.1313395019E+00   0.4036900464E+00  -0.1142823151E-01  -0.6450504832E-02   0.1828021183E-01
   0.4305060408E-02  -0.7043587049E+00   0.4026814125E+00  -0.1677533592E-02   0.4561745306E-01   0.2681406515E-02   0.0000000000E+00   0.0000000000E+00   0.0000000000E+00  -0.1247787612E+00  -0.8247271507E+00  -0.5765264197E+00  -0.5643061568E-01  -0.5905191607E-02   0.1064599449E-01
  -0.6221356367E+00  -0.7907984423E+00   0.4023690014E+00  -0.5591032679E-02   0.4155467265E-01   0.2368995432E-02   0.0000000000E+00   0.0000000000E+00   0.0000000000E+00   0.2649318478E+00  -0.8045024746E+00   0.9268164268E-01   0.3308380508E+00   0.3956140143E-01  -0.4295653314E-02
  -0.4084417586E+00  -0.8820379770E+00   0.4027714684E+00  -0.4244900600E-02   0.4460074500E-01   0.2771462362E-02   0.0000000000E+00   0.0000000000E+00   0.0000000000E+00   0.2489896293E+00  -0.6743986262E+00  -0.4535720087E-01   0.3226523104E+00   0.3163785550E-01   0.8039716239E-02
  -0.2024426692E+00  -0.9417151949E+00   0.4030466070E+00  -0.3096142162E-02   0.4651247013E-01   0.3046600955E-02   0.0000000000E+00   0.0000000000E+00   0.0000000000E+00   0.4217649454E+00  -0.3357635856E+00   0.7215608741E-01   0.1922848963E+00   0.1849861500E-01   0.1459210357E-01
   0.1669547206E-02  -0.9727817377E+00   0.4031546686E+00  -0.2057016794E-02   0.4698900226E-01   0.3154662610E-02   0.0000000000E+00   0.0000000000E+00   0.0000000000E+00   0.3875394132E+00  -0.3066587684E+00   0.3309830597E-01   0.3424359707E-02  -0.5322301056E-02   0.2064264475E-01
  -0.2132567338E+00  -0.1098598199E+01   0.4033062227E+00  -0.3274457834E-02   0.4739742099E-01   0.3306216734E-02   0.0000000000E+00   0.0000000000E+00   0.0000000000E+00   0.3435492005E+00  -0.3878525434E+00   0.7365961618E-01   0.1545874197E+00   0.1284545299E-01   0.1006146150E-01
  -0.2393308008E-02  -0.1132429166E+01   0.4034208392E+00  -0.2283375008E-02   0.4785020439E-01   0.3420833230E-02   0.0000000000E+00   0.0000000000E+00   0.0000000000E+00   0.3670030582E+00  -0.3183033582E+00   0.8885175515E-01  -0.1493057411E-01  -0.4428392622E-02   0.1480369967E-01
  -0.2198148991E+00  -0.1270197911E+01   0.4036084893E+00  -0.3432083081E-02   0.4843337874E-01   0.3608483269E-02   0.0000000000E+00   0.0000000000E+00   0.0000000000E+00   0.2420671373E+00  -0.4888694217E+00   0.3575651316E-01   0.1323528639E+00   0.9594626671E-02   0.8952282983E-02
  -0.4945607147E-02  -0.1304107065E+01   0.4037277615E+00  -0.2485574147E-02   0.4882765528E-01   0.3727755513E-02   0.0000000000E+00   0.0000000000E+00   0.0000000000E+00   0.2881642015E+00  -0.4014040678E+00   0.7214068962E-01  -0.1102110858E-01  -0.3681038661E-02   0.1388607171E-01
  -0.2235208807E+00  -0.1449548384E+01   0.4039453535E+00  -0.3600737748E-02   0.4958699623E-01   0.3945347519E-02   0.0000000000E+00   0.0000000000E+00   0.0000000000E+00   0.1835675328E+00  -0.5531466509E+00   0.3290063690E-01   0.1120877312E+00   0.6787432527E-02   0.8257827309E-02
  -0.6492995807E-02  -0.1481761414E+01   0.4040638569E+00  -0.2695639807E-02   0.4990224633E-01   0.4063850942E-02   0.0000000000E+00   0.0000000000E+00   0.0000000000E+00   0.2346637498E+00  -0.4646855579E+00   0.7398347534E-01  -0.8516063523E-02  -0.2830995349E-02   0.1451493164E-01
  -0.2256195704E+00  -0.1632743297E+01   0.4043110877E+00  -0.3794566369E-02   0.5083424252E-01   0.4311081745E-02   0.0000000000E+00   0.0000000000E+00   0.0000000000E+00   0.1204409940E+00  -0.6251234990E+00   0.1967746828E-01   0.9458695171E-01   0.4323208524E-02   0.8104728538E-02
  -0.7519396809E-02  -0.1662144581E+01   0.4044265502E+00  -0.2926795809E-02   0.5106063939E-01   0.4426544188E-02   0.0000000000E+00   0.0000000000E+00   0.0000000000E+00   0.1951624654E+00  -0.5164684754E+00   0.8343801296E-01  -0.6921831667E-02  -0.2352033192E-02   0.1603405484E-01
  -0.2268907254E+00  -0.1817799249E+01   0.4047058788E+00  -0.4006159381E-02   0.5215724127E-01   0.4705872761E-02   0.0000000000E+00   0.0000000000E+00   0.0000000000E+00   0.6558539142E-01  -0.6889550132E+00   0.8403440339E-02   0.7668120514E-01   0.1865879708E-02   0.7476903479E-02
  -0.8289647708E-02  -0.1843744205E+01   0.4048156145E+00  -0.3168528708E-02   0.5229098507E-01   0.4815608462E-02   0.0000000000E+00   0.0000000000E+00   0.0000000000E+00   0.1621059842E+00  -0.5613069144E+00   0.9388282398E-01  -0.1069269121E-01  -0.1913515584E-02   0.1826356073E-01
  -0.2277580216E+00  -0.2003734854E+01   0.4051311599E+00  -0.4225806587E-02   0.5354330614E-01   0.5131153906E-02   0.0000000000E+00   0.0000000000E+00   0.0000000000E+00   0.3386063163E-01  -0.7323984350E+00   0.1121180528E-01   0.6330552611E-01  -0.7121797061E-03   0.7107501247E-02
  -0.8927538920E-02  -0.2025853492E+01   0.4052315639E+00  -0.3410063920E-02   0.5358328850E-01   0.5231557945E-02   0.0000000000E+00   0.0000000000E+00   0.0000000000E+00   0.1293345072E+00  -0.6050089538E+00   0.9933059030E-01  -0.1478823881E-01  -0.1430503068E-02   0.2114734426E-01
  -0.2290916276E+00  -0.2189063372E+01   0.4055818399E+00  -0.4470197588E-02   0.5497663784E-01   0.5581833942E-02   0.0000000000E+00   0.0000000000E+00   0.0000000000E+00  -0.9398473201E-02  -0.7860308937E+00  -0.1236320197E-02   0.5303470461E-01  -0.2897514184E-02   0.6707402019E-02
  -0.1204998089E-01  -0.2204042441E+01   0.4056661525E+00  -0.3675676892E-02   0.5490325911E-01   0.5666146467E-02   0.0000000000E+00   0.0000000000E+00   0.0000000000E+00   0.1038926483E+00  -0.6402714845E+00   0.1057497708E+00  -0.2146629228E-01  -0.1345813359E-03   0.2398843166E-01
  -0.2300535628E+00  -0.2375458813E+01   0.4060657807E+00  -0.4717368822E-02   0.5646314691E-01   0.6065774713E-02   0.0000000000E+00   0.0000000000E+00   0.0000000000E+00  -0.3943586082E-01  -0.8236140222E+00  -0.4592448490E-02   0.4211599446E-01  -0.4588367614E-02   0.5698032154E-02
  -0.1336154754E-01  -0.2386519412E+01   0.4061441098E+00  -0.3940690539E-02   0.5629398787E-01   0.6144103837E-02   0.0000000000E+00   0.0000000000E+00   0.0000000000E+00   0.9520181174E-01  -0.6546806658E+00   0.1247629442E+00  -0.3563410348E-01   0.1955862624E-02   0.2774150679E-01
  -0.2311203449E+00  -0.2562645405E+01   0.4065856354E+00  -0.4963334856E-02   0.5799225454E-01   0.6585629398E-02   0.0000000000E+00   0.0000000000E+00   0.0000000000E+00  -0.1097945549E+00  -0.8999603758E+00  -0.5372651191E-01   0.3160317209E-01  -0.4598521916E-02   0.3882293193E-02
  -0.1459977765E-01  -0.2570198997E+01   0.4066636966E+00  -0.4201858652E-02   0.5772449264E-01   0.6663690637E-02   0.0000000000E+00   0.0000000000E+00   0.0000000000E+00   0.6007059396E-01  -0.6905763201E+00   0.1130955339E+00  -0.5806309335E-01   0.5263515755E-02   0.3041083342E-01
  -0.2325662530E+00  -0.2750460854E+01   0.4071356598E+00  -0.5185843024E-02   0.5955339608E-01   0.7135653788E-02   0.0000000000E+00   0.0000000000E+00   0.0000000000E+00  -0.1184184121E-01  -0.8014397344E+00   0.6694420758E-01   0.1742193017E-01  -0.5507710452E-03   0.6770525238E-02
  -0.1625558428E-01  -0.2754511471E+01   0.4072312950E+00  -0.4448422284E-02   0.5917680939E-01   0.7231288958E-02   0.0000000000E+00   0.0000000000E+00   0.0000000000E+00   0.8026329978E-01  -0.6625093872E+00   0.1552528983E+00  -0.7945258031E-01   0.1088111659E-01   0.3561207168E-01
  -0.2323329224E+00  -0.2938867770E+01   0.4076807451E+00  -0.5362190404E-02   0.6113222990E-01   0.7680739105E-02   0.0000000000E+00   0.0000000000E+00   0.0000000000E+00  -0.3641181707E+00  -0.1119619816E+01  -0.2113576481E+00   0.5381233899E-02   0.8519038701E-02   0.1358522624E-01
  -0.1615326783E-01  -0.2939372849E+01   0.4078192549E+00  -0.4732640826E-02   0.6062715129E-01   0.7819248865E-02   0.0000000000E+00   0.0000000000E+00   0.0000000000E+00  -0.4856291168E-01  -0.7607914324E+00   0.8588428044E-01  -0.1015011186E+00   0.2238075901E-01   0.4501804388E-01
  -0.4263645438E+00  -0.1045827156E+01   0.4030510393E+00  -0.4361095817E-02   0.4570447388E-01   0.3051033323E-02   0.0000000000E+00   0.0000000000E+00   0.0000000000E+00   0.3311173974E+00  -0.5409470032E+00   0.1088966511E+00   0.2786179231E+00   0.2446569412E-01   0.6484495609E-02
  -0.4363600757E+00  -0.1224456262E+01   0.4033674928E+00  -0.4448070730E-02   0.4700224817E-01   0.3367486842E-02   0.0000000000E+00   0.0000000000E+00   0.0000000000E+00   0.2037377998E+00  -0.6426093376E+00   0.4674546823E-01   0.2375756053E+00   0.2123328564E-01   0.7724515490E-02
  -0.4417177611E+00  -0.1409734177E+01   0.4037220567E+00  -0.4558461073E-02   0.4841203326E-01   0.3722050678E-02   0.0000000000E+00   0.0000000000E+00   0.0000000000E+00   0.1660677192E+00  -0.6662005382E+00   0.6027376658E-01   0.2002107319E+00   0.1582216604E-01   0.6211850936E-02
  -0.4446646924E+00  -0.1598137692E+01   0.4041068311E+00  -0.4704123395E-02   0.4988948772E-01   0.4106825065E-02   0.0000000000E+00   0.0000000000E+00   0.0000000000E+00   0.1064924924E+00  -0.7177361610E+00   0.4302049528E-01   0.1682247845E+00   0.1092695717E-01   0.5607874898E-02
  -0.4464261649E+00  -0.1788122904E+01   0.4045196754E+00  -0.4879396871E-02   0.5141233625E-01   0.4519669397E-02   0.0000000000E+00   0.0000000000E+00   0.0000000000E+00   0.6232138845E-01  -0.7570435327E+00   0.3390644192E-01   0.1411154131E+00   0.6626431154E-02   0.4460299638E-02
  -0.4476223889E+00  -0.1978939461E+01   0.4049600879E+00  -0.5075484853E-02   0.5297000869E-01   0.4960081880E-02   0.0000000000E+00   0.0000000000E+00   0.0000000000E+00   0.3549817403E-01  -0.7835529002E+00   0.3420496661E-01   0.1209847711E+00   0.3496460833E-02   0.3684913805E-02
  -0.4487283349E+00  -0.2169957431E+01   0.4054240031E+00  -0.5299818918E-02   0.5455657908E-01   0.5423997128E-02   0.0000000000E+00   0.0000000000E+00   0.0000000000E+00   0.4000655041E-02  -0.8158283919E+00   0.2714439100E-01   0.1054070185E+00   0.1473438445E-02   0.2817782843E-02
  -0.4496693418E+00  -0.2361442730E+01   0.4059151947E+00  -0.5533675778E-02   0.5617173023E-01   0.5915188672E-02   0.0000000000E+00   0.0000000000E+00   0.0000000000E+00   0.7674158843E-03  -0.8208911782E+00   0.4364174285E-01   0.9052571739E-01   0.7932486495E-03   0.1677407009E-02
  -0.4506439598E+00  -0.2553443131E+01   0.4064343793E+00  -0.5770745753E-02   0.5781298854E-01   0.6434373341E-02   0.0000000000E+00   0.0000000000E+00   0.0000000000E+00  -0.3394334712E-01  -0.8579591217E+00   0.2399846612E-01   0.7750748829E-01   0.2135422595E-02  -0.1540022358E-03
  -0.4517840613E+00  -0.2745937329E+01   0.4069799022E+00  -0.5978571316E-02   0.5947353051E-01   0.6979896175E-02   0.0000000000E+00   0.0000000000E+00   0.0000000000E+00   0.6739329447E-01  -0.7545513413E+00   0.1389135772E+00   0.4821091792E-01   0.6000736842E-02   0.1980249900E-02
  -0.4517327307E+00  -0.2938857503E+01   0.4075207919E+00  -0.6051486700E-02   0.6114249675E-01   0.7520785941E-02   0.0000000000E+00   0.0000000000E+00   0.0000000000E+00  -0.2206220099E+00  -0.1014987510E+01  -0.9436751785E-01   0.1917027524E-01   0.9221766115E-02   0.7634669282E-02
  -0.6458174963E+00  -0.9774657852E+00   0.4026953154E+00  -0.5614199255E-02   0.4315158484E-01   0.2695309369E-02   0.0000000000E+00   0.0000000000E+00   0.0000000000E+00   0.2643313802E+00  -0.7685931009E+00   0.1342962830E+00   0.2654796814E+00   0.3116217330E-01   0.5491242056E-02
  -0.6566809108E+00  -0.1171587800E+01   0.4030417841E+00  -0.5572347847E-02   0.4493202968E-01   0.3041778106E-02   0.0000000000E+00   0.0000000000E+00   0.0000000000E+00   0.2932591085E-01  -0.9503388586E+00  -0.3562249334E-01   0.2209644336E+00   0.2081026458E-01   0.6169088571E-02
  -0.6620400363E+00  -0.1366559565E+01   0.4034343280E+00  -0.5595308252E-02   0.4674762533E-01   0.3434322048E-02   0.0000000000E+00   0.0000000000E+00   0.0000000000E+00   0.3887182242E-01  -0.9118645005E+00   0.2868493723E-02   0.1937645657E+00   0.1328895733E-01   0.2975475381E-02
  -0.6650128459E+00  -0.1561816661E+01   0.4038531153E+00  -0.5675801877E-02   0.4854967892E-01   0.3853109299E-02   0.0000000000E+00   0.0000000000E+00   0.0000000000E+00   0.3014816920E-02  -0.9160782357E+00  -0.8493093395E-02   0.1692386737E+00   0.7877027638E-02   0.2503083318E-02
  -0.6669297470E+00  -0.1757503239E+01   0.4042956307E+00  -0.5803848989E-02   0.5032841056E-01   0.4295624695E-02   0.0000000000E+00   0.0000000000E+00   0.0000000000E+00  -0.7678825450E-02  -0.9015200404E+00  -0.1192104330E-02   0.1508950096E+00   0.3354747258E-02   0.1474273690E-02
  -0.6683517491E+00  -0.1953633996E+01   0.4047598513E+00  -0.5968073126E-02   0.5208566418E-01   0.4759845294E-02   0.0000000000E+00   0.0000000000E+00   0.0000000000E+00  -0.2084610965E-01  -0.8955469363E+00  -0.3825032599E-03   0.1389731465E+00  -0.4724368001E-03   0.1186081980E-02
  -0.6695764311E+00  -0.2150060163E+01   0.4052421815E+00  -0.6167436134E-02   0.5382801660E-01   0.5242175531E-02   0.0000000000E+00   0.0000000000E+00   0.0000000000E+00  -0.5040764990E-01  -0.9109398264E+00  -0.1612063876E-01   0.1336121616E+00  -0.4064339782E-02   0.9441039275E-03
  -0.6706590185E+00  -0.2346812952E+01   0.4057442100E+00  -0.6386412498E-02   0.5556417762E-01   0.5744204036E-02   0.0000000000E+00   0.0000000000E+00   0.0000000000E+00  -0.7945735420E-01  -0.9314411069E+00  -0.3332792938E-01   0.1327443254E+00  -0.7123298745E-02   0.4311700885E-03
  -0.6716850038E+00  -0.2543936385E+01   0.4062657906E+00  -0.6616198822E-02   0.5730353540E-01   0.6265784576E-02   0.0000000000E+00   0.0000000000E+00   0.0000000000E+00  -0.1350550621E+00  -0.9841078304E+00  -0.7955813445E-01   0.1401197149E+00  -0.9035002200E-02  -0.2908010172E-03
  -0.6726820197E+00  -0.2741429008E+01   0.4068069923E+00  -0.6819697667E-02   0.5905112159E-01   0.6806986283E-02   0.0000000000E+00   0.0000000000E+00   0.0000000000E+00  -0.1323500097E+00  -0.9800503656E+00  -0.7038321898E-01   0.1291135030E+00  -0.7402884958E-02  -0.6554096422E-03
  -0.6728123606E+00  -0.2939195572E+01   0.4073607935E+00  -0.6835836550E-02   0.6080442784E-01   0.7360787503E-02   0.0000000000E+00   0.0000000000E+00   0.0000000000E+00  -0.2789041072E+00  -0.1118699988E+01  -0.2016450298E+00   0.1178686038E+00  -0.7434629208E-02   0.8377624266E-03
  -0.8777274604E+00  -0.9022190853E+00   0.4022910714E+00  -0.7017504374E-02   0.4056599871E-01   0.2291065402E-02   0.0000000000E+00   0.0000000000E+00   0.0000000000E+00  -0.1774437311E+00  -0.1328735082E+01  -0.1783181161E+00   0.1946607148E+00   0.1733601379E-01   0.4266772763E-03
  -0.8824826948E+00  -0.1118636423E+01   0.4027301032E+00  -0.6789790826E-02   0.4296774672E-01   0.2730097165E-02   0.0000000000E+00   0.0000000000E+00   0.0000000000E+00   0.5690962091E-01  -0.1021670204E+01   0.6716765035E-01   0.1709161961E+00   0.9599017296E-02  -0.2329042713E-02
  -0.8848804185E+00  -0.1323949214E+01   0.4031652292E+00  -0.6707365517E-02   0.4516446643E-01   0.3165223236E-02   0.0000000000E+00   0.0000000000E+00   0.0000000000E+00   0.5090115160E-01  -0.9867519791E+00   0.6325630681E-01   0.1632508538E+00   0.7891149862E-02  -0.6643224088E-03
  -0.8866530293E+00  -0.1525848666E+01   0.4036116579E+00  -0.6710314324E-02   0.4723866367E-01   0.3611651912E-02   0.0000000000E+00   0.0000000000E+00   0.0000000000E+00   0.6342430714E-01  -0.9270281650E+00   0.8379093704E-01   0.1468831606E+00   0.5073951941E-02  -0.1280912699E-02
  -0.8882302355E+00  -0.1727093578E+01   0.4040758553E+00  -0.6781847499E-02   0.4922783170E-01   0.4075849274E-02   0.0000000000E+00   0.0000000000E+00   0.0000000000E+00   0.5793563049E-01  -0.8931775472E+00   0.8314264726E-01   0.1336940069E+00   0.2928774549E-02  -0.1796099441E-02
  -0.8896547716E+00  -0.1928513319E+01   0.4045606297E+00  -0.6905035634E-02   0.5114671085E-01   0.4560623740E-02   0.0000000000E+00   0.0000000000E+00   0.0000000000E+00   0.6739543005E-01  -0.8481314883E+00   0.9470332617E-01   0.1216849643E+00   0.1007680393E-02  -0.2367587783E-02
  -0.8909704105E+00  -0.2130212957E+01   0.4050650978E+00  -0.7072509477E-02   0.5300123334E-01   0.5065091799E-02   0.0000000000E+00   0.0000000000E+00   0.0000000000E+00   0.8509450211E-01  -0.7982224883E+00   0.1123631316E+00   0.1124484044E+00  -0.8272103784E-03  -0.2783921483E-02
  -0.8922033686E+00  -0.2332169606E+01   0.4055900039E+00  -0.7271148645E-02   0.5479423352E-01   0.5589997856E-02   0.0000000000E+00   0.0000000000E+00   0.0000000000E+00   0.1208771525E+00  -0.7340067391E+00   0.1440667364E+00   0.1047947832E+00  -0.2409284101E-02  -0.3265975810E-02
  -0.8933341773E+00  -0.2534422196E+01   0.4061334996E+00  -0.7491973332E-02   0.5653067405E-01   0.6133493644E-02   0.0000000000E+00   0.0000000000E+00   0.0000000000E+00   0.1684435628E+00  -0.6635402668E+00   0.1828951514E+00   0.1028215628E+00  -0.3584348224E-02  -0.2681993495E-02
  -0.8942976662E+00  -0.2737049596E+01   0.4066921391E+00  -0.7699258239E-02   0.5822037426E-01   0.6692133127E-02   0.0000000000E+00   0.0000000000E+00   0.0000000000E+00   0.1854470984E+00  -0.6324616003E+00   0.1863429913E+00   0.8318098818E-01  -0.3599897980E-02  -0.3161994253E-02
  -0.8948296674E+00  -0.2940116887E+01   0.4072755913E+00  -0.7733679438E-02   0.5988311285E-01   0.7275585339E-02   0.0000000000E+00   0.0000000000E+00   0.0000000000E+00   0.1741880606E+00  -0.6533443758E+00   0.1392965759E+00   0.6541122821E-01  -0.5531019333E-02  -0.2838802002E-02
  -0.1117043946E+01  -0.2733211256E+01   0.4064544821E+00  -0.8623336283E-02   0.5820586388E-01   0.6454476077E-02   0.0000000000E+00   0.0000000000E+00   0.0000000000E+00  -0.9607273560E-01  -0.9689110462E+00  -0.8249125611E-01   0.1039497302E-01   0.6422062175E-02  -0.6529970614E-02
  -0.1117614567E+01  -0.2939981929E+01   0.4070594957E+00  -0.8742157145E-02   0.6001807120E-01   0.7059489692E-02   0.0000000000E+00   0.0000000000E+00   0.0000000000E+00   0.6175957579E-01  -0.8325021542E+00   0.8583384096E-05  -0.2445973727E-01   0.6499676427E-02  -0.8765007384E-02
  -0.1340379524E+01  -0.2730710277E+01   0.4062251424E+00  -0.9597823984E-02   0.5818080332E-01   0.6225136365E-02   0.0000000000E+00   0.0000000000E+00   0.0000000000E+00  -0.3203394625E-01  -0.9489200913E+00  -0.1543119671E-01   0.3599259306E-01   0.1385937403E-03  -0.7084758675E-02
  -0.1341014324E+01  -0.2939886354E+01   0.4068350650E+00  -0.9847464125E-02   0.6011364608E-01   0.6835058979E-02   0.0000000000E+00   0.0000000000E+00   0.0000000000E+00   0.1561377459E+00  -0.7952543824E+00   0.7526315871E-01   0.2487522812E-01   0.1184891421E-02  -0.1033158954E-01
  -0.1564207869E+01  -0.2729086465E+01   0.4059932689E+00  -0.1061399883E-01   0.5831926490E-01   0.5993262941E-02   0.0000000000E+00   0.0000000000E+00   0.0000000000E+00  -0.1182016794E+00  -0.1070900546E+01  -0.9565685542E-01   0.1307523913E-01  -0.8119644241E-03  -0.8481952540E-02
  -0.1564896641E+01  -0.2939652259E+01   0.4066066804E+00  -0.1102703054E-01   0.6034774149E-01   0.6606674438E-02   0.0000000000E+00   0.0000000000E+00   0.0000000000E+00   0.1393688990E+00  -0.8550537644E+00   0.4861738813E-01   0.1912049469E-01   0.9819776942E-03  -0.1323540377E-01
  -0.1788380822E+01  -0.2727828863E+01   0.4057294942E+00  -0.1166125238E-01   0.5880629692E-01   0.5729488219E-02   0.0000000000E+00   0.0000000000E+00   0.0000000000E+00   0.9036435450E-01  -0.9122024701E+00   0.1388627304E+00  -0.5847672864E-01   0.1163154452E-01  -0.7831175382E-02
  -0.1789112233E+01  -0.2939024048E+01   0.4063389511E+00  -0.1225295285E-01   0.6097595157E-01   0.6338945089E-02   0.0000000000E+00   0.0000000000E+00   0.0000000000E+00   0.3241151434E+00  -0.7217422294E+00   0.2568120996E+00  -0.6341979561E-01   0.1475512180E-01  -0.1185912720E-01
  -0.2012733125E+01  -0.2726204449E+01   0.4053338387E+00  -0.1273312519E-01   0.5997891097E-01   0.5333832716E-02   0.0000000000E+00   0.0000000000E+00   0.0000000000E+00  -0.4903979662E+00  -0.1624928551E+01  -0.3251550968E+00  -0.1156865189E+00   0.2473670540E-01  -0.8416302057E-02
  -0.2013500395E+01  -0.2937437752E+01   0.4059405224E+00  -0.1350039471E-01   0.6256224841E-01   0.5940516407E-02   0.0000000000E+00   0.0000000000E+00   0.0000000000E+00  -0.2128604105E+00  -0.1389619903E+01  -0.1604282617E+00  -0.1345780637E+00   0.2843509526E-01  -0.1575293178E-01
  -0.1116060650E+01  -0.2526919621E+01   0.4058897872E+00  -0.8405719841E-02   0.5634210850E-01   0.5889781242E-02   0.0000000000E+00   0.0000000000E+00   0.0000000000E+00  -0.9179152227E-01  -0.9819669326E+00  -0.5150024030E-01   0.4220172115E-01   0.4428598535E-02  -0.2752764102E-02
  -0.1339472940E+01  -0.2521938536E+01   0.4056652926E+00  -0.9362149519E-02   0.5620005360E-01   0.5665286617E-02   0.0000000000E+00   0.0000000000E+00   0.0000000000E+00  -0.5570535805E-02  -0.9361536963E+00   0.4286564148E-01   0.4223310483E-01  -0.2062861215E-02  -0.2692805842E-02
  -0.1563463824E+01  -0.2518831582E+01   0.4054374980E+00  -0.1035560440E-01   0.5623927790E-01   0.5437491964E-02   0.0000000000E+00   0.0000000000E+00   0.0000000000E+00  -0.7763325443E-01  -0.1043238729E+01  -0.2040735508E-01   0.3429801876E-02  -0.2120643292E-02  -0.2747649955E-02
  -0.1787851105E+01  -0.2516870705E+01   0.4051764476E+00  -0.1137901462E-01   0.5658439531E-01   0.5176441573E-02   0.0000000000E+00   0.0000000000E+00   0.0000000000E+00   0.9917984864E-01  -0.9164385392E+00   0.1838179017E+00  -0.5870741927E-01   0.9241780489E-02  -0.2685937336E-02
  -0.2012425732E+01  -0.2515140096E+01   0.4047961608E+00  -0.1242573239E-01   0.5735560423E-01   0.4796154811E-02   0.0000000000E+00   0.0000000000E+00   0.0000000000E+00  -0.4280574009E+00  -0.1564210322E+01  -0.2368422905E+00  -0.1033794160E+00   0.2060595900E-01   0.1764846841E-02
  -0.1114885547E+01  -0.2320976418E+01   0.4053514618E+00  -0.8197997449E-02   0.5442079194E-01   0.5351455835E-02   0.0000000000E+00   0.0000000000E+00   0.0000000000E+00  -0.8982193604E-01  -0.1004097719E+01  -0.4024569051E-01   0.5846181312E-01   0.3105971627E-02  -0.2169036817E-02
  -0.1338417945E+01  -0.2313463838E+01   0.4051324040E+00  -0.9169875146E-02   0.5415901151E-01   0.5132397960E-02   0.0000000000E+00   0.0000000000E+00   0.0000000000E+00  -0.3825254440E-01  -0.9936122974E+00   0.2037062128E-01   0.4497361287E-01  -0.2839097287E-02  -0.2661899923E-02
  -0.1562657884E+01  -0.2308814801E+01   0.4049111953E+00  -0.1018016384E-01   0.5409856930E-01   0.4911189274E-02   0.0000000000E+00   0.0000000000E+00   0.0000000000E+00  -0.8305334247E-01  -0.1072652915E+01  -0.1636679331E-01   0.6786015780E-02  -0.2305403910E-02  -0.2443821710E-02
  -0.1787369376E+01  -0.2306110403E+01   0.4046537937E+00  -0.1122105556E-01   0.5429837656E-01   0.4653787734E-02   0.0000000000E+00   0.0000000000E+00   0.0000000000E+00   0.1869971815E-01  -0.1020923567E+01   0.1132237778E+00  -0.3447980006E-01   0.6289203328E-02  -0.2222183138E-02
  -0.2012284230E+01  -0.2304177488E+01   0.4043076385E+00  -0.1228422984E-01   0.5472759161E-01   0.4307632450E-02   0.0000000000E+00   0.0000000000E+00   0.0000000000E+00  -0.3481290605E+00  -0.1484685069E+01  -0.1690674597E+00  -0.5817660681E-01   0.1318832290E-01   0.5313305972E-02
  -0.1113612974E+01  -0.2115286967E+01   0.4048313774E+00  -0.8025963871E-02   0.5244074266E-01   0.4831371399E-02   0.0000000000E+00   0.0000000000E+00   0.0000000000E+00  -0.8010154652E-01  -0.1023577591E+01  -0.2736825993E-01   0.7397065506E-01   0.2224259438E-02  -0.2137868231E-02
  -0.1337288994E+01  -0.2105204507E+01   0.4046183253E+00  -0.9027384061E-02   0.5205686251E-01   0.4618319295E-02   0.0000000000E+00   0.0000000000E+00   0.0000000000E+00  -0.4872313729E-01  -0.1032850277E+01   0.1246920629E-01   0.4734546091E-01  -0.3073268399E-02  -0.2832909501E-02
  -0.1561821509E+01  -0.2098972687E+01   0.4044048163E+00  -0.1006858895E-01   0.5190026335E-01   0.4404810288E-02   0.0000000000E+00   0.0000000000E+00   0.0000000000E+00  -0.6850959803E-01  -0.1084830739E+01  -0.1280716751E-02   0.1018568863E-01  -0.2156191971E-02  -0.2566394396E-02
  -0.1786914777E+01  -0.2095495118E+01   0.4041554961E+00  -0.1114053684E-01   0.5195866227E-01   0.4155490117E-02   0.0000000000E+00   0.0000000000E+00   0.0000000000E+00  -0.1991608583E-01  -0.1082774612E+01   0.7264541126E-01  -0.1662868983E-01   0.4025199780E-02  -0.1778932503E-02
  -0.2012233020E+01  -0.2093261361E+01   0.4038436947E+00  -0.1223301954E-01   0.5212127861E-01   0.3843688699E-02   0.0000000000E+00   0.0000000000E+00   0.0000000000E+00  -0.2666428714E+00  -0.1403008286E+01  -0.1112045724E+00  -0.2811963948E-01   0.7370670732E-02   0.5623622201E-02
  -0.1112288433E+01  -0.1909812259E+01   0.4043284159E+00  -0.7896142841E-02   0.5039544134E-01   0.4328409885E-02   0.0000000000E+00   0.0000000000E+00   0.0000000000E+00  -0.7482543127E-01  -0.1052517650E+01  -0.2172555855E-01   0.8629933419E-01   0.1696110493E-02  -0.2343700055E-02
  -0.1336143161E+01  -0.1897120183E+01   0.4041230085E+00  -0.8937140707E-02   0.4989247711E-01   0.4123002526E-02   0.0000000000E+00   0.0000000000E+00   0.0000000000E+00  -0.5180954333E-01  -0.1067338536E+01   0.7577496048E-02   0.4776163401E-01  -0.3308738612E-02  -0.3053429037E-02
  -0.1561005023E+01  -0.1889267911E+01   0.4039185473E+00  -0.1001766272E-01   0.4964805933E-01   0.3918541263E-02   0.0000000000E+00   0.0000000000E+00   0.0000000000E+00  -0.6061669272E-01  -0.1104186684E+01   0.1880180074E-02   0.1269270765E-01  -0.2122109186E-02  -0.2797225364E-02
  -0.1786516041E+01  -0.1884983839E+01   0.4036812715E+00  -0.1112732052E-01   0.4957992149E-01   0.3681265474E-02   0.0000000000E+00   0.0000000000E+00   0.0000000000E+00  -0.3746754901E-01  -0.1120540249E+01   0.4530167859E-01  -0.3413010210E-02   0.2516875062E-02  -0.1574600817E-02
  -0.2012254959E+01  -0.1882362464E+01   0.4033975533E+00  -0.1225495941E-01   0.4954220637E-01   0.3397547283E-02   0.0000000000E+00   0.0000000000E+00   0.0000000000E+00  -0.2062949961E+00  -0.1343862044E+01  -0.7790166504E-01  -0.7606542003E-02   0.3973584401E-02   0.5013792702E-02
  -0.1110982875E+01  -0.1704546951E+01   0.4038423043E+00  -0.7819635267E-02   0.4827675932E-01   0.3842298285E-02   0.0000000000E+00   0.0000000000E+00   0.0000000000E+00  -0.8110732200E-01  -0.1097376928E+01  -0.2833434417E-01   0.9559676535E-01   0.1204237646E-02  -0.2259479132E-02
  -0.1335129300E+01  -0.1689187867E+01   0.4036474222E+00  -0.8908190093E-02   0.4766490313E-01   0.3647416157E-02   0.0000000000E+00   0.0000000000E+00   0.0000000000E+00  -0.4703419153E-01  -0.1095442379E+01   0.7641926268E-02   0.4428931594E-01  -0.3958875254E-02  -0.2888723077E-02
  -0.1560384225E+01  -0.1679675483E+01   0.4034538376E+00  -0.1003427526E-01   0.4734680704E-01   0.3453831622E-02   0.0000000000E+00   0.0000000000E+00   0.0000000000E+00  -0.5256319575E-01  -0.1122718415E+01   0.1100521095E-02   0.1104869308E-01  -0.2388446787E-02  -0.2643540963E-02
  -0.1786295583E+01  -0.1674550757E+01   0.4032312369E+00  -0.1118581325E-01   0.4717602339E-01   0.3231230868E-02   0.0000000000E+00   0.0000000000E+00   0.0000000000E+00  -0.3204533170E-01  -0.1132123634E+01   0.3513775359E-01   0.2408489265E-02   0.1584250005E-02  -0.1150269562E-02
  -0.2012351564E+01  -0.1671479880E+01   0.4029690603E+00  -0.1235156369E-01   0.4698926001E-01   0.2969054277E-02   0.0000000000E+00   0.0000000000E+00   0.0000000000E+00  -0.1623360644E+00  -0.1302394777E+01  -0.6226486894E-01   0.2570079150E-02   0.2590689175E-02   0.4565466914E-02
  -0.1109963654E+01  -0.1499289357E+01   0.4033748985E+00  -0.7808443790E-02   0.4607383338E-01   0.3374892462E-02   0.0000000000E+00   0.0000000000E+00   0.0000000000E+00  -0.8713219165E-01  -0.1146135547E+01  -0.3644208946E-01   0.1005850752E+00   0.6205709569E-03  -0.1958056846E-02
  -0.1334718380E+01  -0.1481227099E+01   0.4031937311E+00  -0.8954919732E-02   0.4537231142E-01   0.3193725110E-02   0.0000000000E+00   0.0000000000E+00   0.0000000000E+00  -0.3305502126E-01  -0.1115152447E+01   0.1325012673E-01   0.3512822935E-01  -0.5006864052E-02  -0.2203263762E-02
  -0.1560421989E+01  -0.1470077005E+01   0.4030124389E+00  -0.1013330939E-01   0.4500106483E-01   0.3012432880E-02   0.0000000000E+00   0.0000000000E+00   0.0000000000E+00  -0.4394434760E-01  -0.1139682791E+01  -0.3413528503E-02   0.3666366143E-02  -0.2830894206E-02  -0.1938732747E-02
  -0.1786529060E+01  -0.1464124884E+01   0.4028058663E+00  -0.1132989035E-01   0.4475787593E-01   0.2805860328E-02   0.0000000000E+00   0.0000000000E+00   0.0000000000E+00  -0.1311108481E-01  -0.1127552023E+01   0.3361721141E-01   0.6034127265E-03   0.9445915941E-03  -0.3492469093E-03
  -0.2012534905E+01  -0.1460614161E+01   0.4025614242E+00  -0.1253490539E-01   0.4446236926E-01   0.2561418182E-02   0.0000000000E+00   0.0000000000E+00   0.0000000000E+00  -0.1282165226E+00  -0.1270812561E+01  -0.5845619087E-01   0.4363101435E-02   0.2280616086E-02   0.4950048171E-02
  -0.1109860264E+01  -0.1293106937E+01   0.4029263578E+00  -0.7882434262E-02   0.4376874347E-01   0.2926351789E-02   0.0000000000E+00   0.0000000000E+00   0.0000000000E+00  -0.1142944402E+00  -0.1218580455E+01  -0.6784137350E-01   0.1007252796E+00  -0.4652900588E-03  -0.3019823030E-03
  -0.1335811117E+01  -0.1272558708E+01   0.4027631435E+00  -0.9098986717E-02   0.4300902153E-01   0.2763137475E-02   0.0000000000E+00   0.0000000000E+00   0.0000000000E+00  -0.1799128941E-01  -0.1133737542E+01   0.1523488679E-01   0.1836355550E-01  -0.6421575722E-02  -0.9122614678E-03
  -0.1561879351E+01  -0.1260069598E+01   0.4025951069E+00  -0.1033611150E-01   0.4261244173E-01   0.2595100933E-02   0.0000000000E+00   0.0000000000E+00   0.0000000000E+00  -0.3232469169E-01  -0.1152507712E+01  -0.9434135734E-02  -0.1061891253E-01  -0.3414329274E-02  -0.8167182418E-03
  -0.1787623453E+01  -0.1253475789E+01   0.4024052431E+00  -0.1157884271E-01   0.4233205050E-01   0.2405237141E-02   0.0000000000E+00   0.0000000000E+00   0.0000000000E+00   0.1188465873E-01  -0.1114864618E+01   0.3403608843E-01  -0.9206314847E-02   0.1319665316E-03   0.7363377751E-03
  -0.2012821456E+01  -0.1249675565E+01   0.4021785511E+00  -0.1282145624E-01   0.4196507481E-01   0.2178545092E-02   0.0000000000E+00   0.0000000000E+00   0.0000000000E+00  -0.9450315738E-01  -0.1237870524E+01  -0.5842166470E-01  -0.1442764011E-02   0.1880477384E-02   0.6204315855E-02
  -0.1111575994E+01  -0.1083635283E+01   0.4024982283E+00  -0.8069314126E-02   0.4133062652E-01   0.2498222267E-02   0.0000000000E+00   0.0000000000E+00   0.0000000000E+00  -0.8321145700E-01  -0.1230885984E+01  -0.4604532904E-01   0.8911208295E-01  -0.2577003840E-02  -0.7678402638E-03
  -0.1339608575E+01  -0.1061733896E+01   0.4023549707E+00  -0.9370115095E-02   0.4056293353E-01   0.2354964658E-02   0.0000000000E+00   0.0000000000E+00   0.0000000000E+00   0.1509607222E-01  -0.1132805138E+01   0.3044600317E-01  -0.6578473532E-02  -0.7946110189E-02  -0.2592874834E-03
  -0.1565651622E+01  -0.1048864471E+01   0.4022011281E+00  -0.1066836208E-01   0.4017818939E-01   0.2201122090E-02   0.0000000000E+00   0.0000000000E+00   0.0000000000E+00  -0.1781488926E-01  -0.1161098526E+01  -0.1645718555E-01  -0.3103341501E-01  -0.4419559353E-02   0.5564148936E-03
  -0.1790016688E+01  -0.1042160317E+01   0.4020288969E+00  -0.1195410760E-01   0.3990049326E-01   0.2028890859E-02   0.0000000000E+00   0.0000000000E+00   0.0000000000E+00   0.3197746145E-01  -0.1105623277E+01   0.2630537334E-01  -0.2680552726E-01  -0.1592055416E-02   0.2154671676E-02
  -0.2013229020E+01  -0.1038393238E+01   0.4018237147E+00  -0.1322902039E-01   0.3950407239E-01   0.1823708746E-02   0.0000000000E+00   0.0000000000E+00   0.0000000000E+00  -0.5462900315E-01  -0.1195432610E+01  -0.5682000679E-01  -0.1534737334E-01  -0.3896834709E-04   0.8286054719E-02
  -0.1116686845E+01  -0.8666435244E+00   0.4020805259E+00  -0.8417154794E-02   0.3871324056E-01   0.2080519896E-02   0.0000000000E+00   0.0000000000E+00   0.0000000000E+00  -0.1434782491E+00  -0.1325810293E+01  -0.1122734371E+00   0.7918932424E-01  -0.7112448636E-02   0.4321427094E-02
  -0.1347668343E+01  -0.8468268690E+00   0.4019674528E+00  -0.9801323436E-02   0.3801779201E-01   0.1967446752E-02   0.0000000000E+00   0.0000000000E+00   0.0000000000E+00  -0.1934865020E-01  -0.1200382911E+01  -0.2758259765E-01  -0.3856130948E-01  -0.9995010663E-02   0.2692703396E-02
  -0.1572613965E+01  -0.8355662427E+00   0.4018317209E+00  -0.1115704474E-01   0.3769413625E-01   0.1831714944E-02   0.0000000000E+00   0.0000000000E+00   0.0000000000E+00  -0.8737838765E-02  -0.1175077913E+01  -0.3470087424E-01  -0.5971062339E-01  -0.6505279754E-02   0.2574931599E-02
  -0.1794069657E+01  -0.8297061242E+00   0.4016781920E+00  -0.1248133748E-01   0.3746277880E-01   0.1678186003E-02   0.0000000000E+00   0.0000000000E+00   0.0000000000E+00   0.3901188680E-01  -0.1110391286E+01   0.5097474582E-03  -0.5569571145E-01  -0.4952390580E-02   0.3574657383E-02
  -0.2013783756E+01  -0.8263634897E+00   0.4015002942E+00  -0.1378375582E-01   0.3708805026E-01   0.1500288155E-02   0.0000000000E+00   0.0000000000E+00   0.0000000000E+00   0.1403277037E-01  -0.1121600391E+01  -0.3370396108E-01  -0.4170812287E-01  -0.4645053322E-02   0.1040615167E-01
  -0.7088759362E+00   0.7217264110E+00   0.4001919781E+00  -0.4023057151E-02   0.1403599298E-01   0.1919721496E-03   0.0000000000E+00   0.0000000000E+00   0.0000000000E+00   0.3279507614E-01  -0.1065700468E+01   0.3042951262E-01  -0.3193375996E+00   0.2451179951E-01   0.2865732166E-01
  -0.8007621678E+00   0.5199809751E+00   0.4000924933E+00  -0.5515327755E-02   0.1766742107E-01   0.9248727811E-04   0.0000000000E+00   0.0000000000E+00   0.0000000000E+00   0.3362621353E-01  -0.1265738857E+01   0.1844201535E+00  -0.1816197913E+00  -0.2399384128E-01   0.5708196706E-01
  -0.6354761353E+00   0.4235961539E+00   0.3998752531E+00  -0.5184077307E-02   0.1710880795E-01  -0.1247529250E-03   0.0000000000E+00   0.0000000000E+00   0.0000000000E+00  -0.1190075714E+01  -0.2744014134E+01  -0.8539853690E+00  -0.2304842424E+00   0.9233905999E-02   0.1029660897E+00
  -0.5330976252E+00   0.5450201215E+00   0.4002057592E+00  -0.3797472178E-02   0.1366211745E-01   0.2057531775E-03   0.0000000000E+00   0.0000000000E+00   0.0000000000E+00  -0.2739677138E+00  -0.1547227742E+01  -0.2425767114E+00  -0.3428586943E+00   0.6865112380E-01   0.8807051560E-01
  -0.8652829954E+00   0.3464702877E+00   0.4000545620E+00  -0.7155222354E-02   0.2098207774E-01   0.5455598268E-04   0.0000000000E+00   0.0000000000E+00   0.0000000000E+00   0.4744103884E-01  -0.1443957966E+01   0.2973626733E+00  -0.5377113408E-01  -0.4798001147E-01   0.5017078716E-01
  -0.7054361564E+00   0.2925802525E+00   0.3997329489E+00  -0.6537066374E-02   0.2047715146E-01  -0.2670570907E-03   0.0000000000E+00   0.0000000000E+00   0.0000000000E+00  -0.1781470193E+01  -0.3526868702E+01  -0.1264969349E+01  -0.1086532131E+00  -0.5324118448E-01   0.7827841247E-01
  -0.9027293120E+00   0.1825690710E+00   0.4001094691E+00  -0.8404950025E-02   0.2403138503E-01   0.1094630644E-03   0.0000000000E+00   0.0000000000E+00   0.0000000000E+00   0.7512485813E-01  -0.1481104785E+01   0.4092149772E+00  -0.1184203961E-01  -0.5964365353E-01   0.2652939665E-01
  -0.7451501431E+00   0.1593098577E+00   0.3997567726E+00  -0.7523173109E-02   0.2363956872E-01  -0.2432334032E-03   0.0000000000E+00   0.0000000000E+00   0.0000000000E+00  -0.1998962391E+01  -0.3846837205E+01  -0.1407260776E+01  -0.4497284250E-01  -0.7975498243E-01   0.3456755434E-01
  -0.1062905864E+01   0.1906747668E+00   0.4003225398E+00  -0.9332254424E-02   0.2462790878E-01   0.3225337931E-03   0.0000000000E+00   0.0000000000E+00   0.0000000000E+00  -0.1588852962E+00  -0.1527740758E+01   0.1035021936E-01   0.5996899627E-01  -0.2140606209E-01   0.2206365779E-01
  -0.1240771138E+01   0.1978594729E+00   0.4003842666E+00  -0.1035722803E-01   0.2484718689E-01   0.3842606311E-03   0.0000000000E+00   0.0000000000E+00   0.0000000000E+00  -0.1895531802E-01  -0.1286577197E+01   0.6896109344E-01   0.1036176220E+00   0.1913994025E-02   0.1153646428E-01
  -0.1428663306E+01   0.2042389299E+00   0.4003499397E+00  -0.1141445611E-01   0.2505660890E-01   0.3499337204E-03   0.0000000000E+00   0.0000000000E+00   0.0000000000E+00  -0.7601524430E-01  -0.1282275913E+01  -0.1652135171E-01   0.8295123242E-01   0.8381694487E-02   0.8460600715E-02
  -0.1621838922E+01   0.2094271231E+00   0.4002822140E+00  -0.1248824170E-01   0.2529562009E-01   0.2822080061E-03   0.0000000000E+00   0.0000000000E+00   0.0000000000E+00  -0.5522568486E-02  -0.1168750632E+01   0.2699174753E-01   0.6949347579E-01   0.7843132961E-02   0.6758110003E-02
  -0.1817132883E+01   0.2114031720E+00   0.4002012088E+00  -0.1357358285E-01   0.2563123003E-01   0.2012028438E-03   0.0000000000E+00   0.0000000000E+00   0.0000000000E+00  -0.5075067942E-01  -0.1169182227E+01  -0.5079363964E-01   0.4112277329E-01   0.3018122212E-02   0.5501643060E-02
  -0.2014658644E+01   0.2144449774E+00   0.4001329738E+00  -0.1465864436E-01   0.2606205340E-01   0.1329678212E-03   0.0000000000E+00   0.0000000000E+00   0.0000000000E+00   0.1412297205E+00  -0.9104790280E+00   0.8034281371E-01   0.2007641032E-01  -0.4107311844E-02   0.3853316666E-02
  -0.1035871188E+01   0.3658637404E+00   0.4002602390E+00  -0.8079688197E-02   0.2199482942E-01   0.2602329683E-03   0.0000000000E+00   0.0000000000E+00   0.0000000000E+00   0.6802129736E-01  -0.1287681027E+01   0.1282061682E+00   0.6305869433E-01  -0.1683649396E-01   0.3281184375E-01
  -0.1221077445E+01   0.3794556873E+00   0.4002821459E+00  -0.9209395387E-02   0.2240634126E-01   0.2821399199E-03   0.0000000000E+00   0.0000000000E+00   0.0000000000E+00   0.1801430177E-01  -0.1293262781E+01   0.5695157040E-02   0.1399800552E+00   0.4917930594E-02   0.1948244614E-01
  -0.1414240131E+01   0.3901427604E+00   0.4002317358E+00  -0.1038338127E-01   0.2270533844E-01   0.2317297559E-03   0.0000000000E+00   0.0000000000E+00   0.0000000000E+00   0.4488023591E-01  -0.1199338394E+01   0.2170567384E-01   0.1201600928E+00   0.6580283889E-02   0.1348155024E-01
  -0.1611964663E+01   0.3986000487E+00   0.4001486843E+00  -0.1156529282E-01   0.2301747265E-01   0.1486783094E-03   0.0000000000E+00   0.0000000000E+00   0.0000000000E+00   0.6263827412E-01  -0.1136386330E+01   0.2850779225E-01   0.1028437480E+00   0.6314133521E-02   0.9313904921E-02
  -0.1812185542E+01   0.4039086513E+00   0.4000539181E+00  -0.1275088247E-01   0.2343611029E-01   0.5391214997E-04   0.0000000000E+00   0.0000000000E+00   0.0000000000E+00   0.3389307016E-01  -0.1118015336E+01  -0.1924016373E-01   0.6274036465E-01   0.1181770510E-02   0.7090784264E-02
  -0.2013931427E+01   0.4084735530E+00   0.3999710563E+00  -0.1393142674E-01   0.2404228001E-01  -0.2894971956E-04   0.0000000000E+00   0.0000000000E+00   0.0000000000E+00   0.1717483858E+00  -0.9196954349E+00   0.7051488219E-01   0.2871403823E-01  -0.5445291958E-02   0.3388289419E-02
  -0.9948597630E+00   0.5482587351E+00   0.4002249762E+00  -0.6527015027E-02   0.1928253308E-01   0.2249701568E-03   0.0000000000E+00   0.0000000000E+00   0.0000000000E+00   0.2146551938E+00  -0.1079117383E+01   0.1801760612E+00  -0.4338333536E-01  -0.1033887221E-01   0.2237825738E-01
  -0.1193970389E+01   0.5648694246E+00   0.4002106613E+00  -0.7837118939E-02   0.1992120459E-01   0.2106553271E-03   0.0000000000E+00   0.0000000000E+00   0.0000000000E+00   0.1989101655E+00  -0.1126229435E+01   0.9008035408E-01   0.9484494331E-01   0.3020258428E-02   0.1036302692E-01
  -0.1395717520E+01   0.5775683064E+00   0.4001344822E+00  -0.9155769991E-02   0.2033699937E-01   0.1344762269E-03   0.0000000000E+00   0.0000000000E+00   0.0000000000E+00   0.1560151737E+00  -0.1104588893E+01   0.6173232645E-01   0.9873415516E-01   0.3861395695E-02   0.5934191763E-02
  -0.1599894781E+01   0.5880689059E+00   0.4000331877E+00  -0.1044990092E-01   0.2072900891E-01   0.3318170061E-04   0.0000000000E+00   0.0000000000E+00   0.0000000000E+00   0.1362946884E+00  -0.1084854447E+01   0.4745521514E-01   0.1005199148E+00   0.2553412086E-02   0.3317964386E-02
  -0.1805927103E+01   0.5956201662E+00   0.3999225792E+00  -0.1172787307E-01   0.2123142425E-01  -0.7742680917E-04   0.0000000000E+00   0.0000000000E+00   0.0000000000E+00   0.9651716016E-01  -0.1080247472E+01   0.3758639673E-02   0.6661097850E-01  -0.1549869985E-02   0.1921708379E-02
  -0.2012994244E+01   0.6015050943E+00   0.3998180795E+00  -0.1299424431E-01   0.2198534527E-01  -0.1819265250E-03   0.0000000000E+00   0.0000000000E+00   0.0000000000E+00   0.1861134068E+00  -0.9438261302E+00   0.6205029544E-01   0.3682360209E-01  -0.6827655185E-02  -0.2755354434E-02
  -0.9512267152E+00   0.7429423513E+00   0.4001082306E+00  -0.5377654152E-02   0.1653506134E-01   0.1082246214E-03   0.0000000000E+00   0.0000000000E+00   0.0000000000E+00   0.7577420852E-01  -0.1143003913E+01   0.4573595670E-01  -0.1726761288E+00  -0.1974964415E-02  -0.5843185158E-02
  -0.1165833942E+01   0.7546481966E+00   0.4000709836E+00  -0.6725422334E-02   0.1746140657E-01   0.7097763157E-04   0.0000000000E+00   0.0000000000E+00   0.0000000000E+00   0.8023550928E-01  -0.1166216964E+01   0.6396979401E-02   0.2913557831E-01  -0.3662818006E-02  -0.6570062020E-02
  -0.1375719697E+01   0.7666100702E+00   0.3999943917E+00  -0.8034497423E-02   0.1798717623E-01  -0.5614308445E-05   0.0000000000E+00   0.0000000000E+00   0.0000000000E+00   0.6127880170E-01  -0.1159716389E+01  -0.1300755604E-01   0.6341499546E-01  -0.1243230287E-02  -0.6046768308E-02
  -0.1586355656E+01   0.7788779818E+00   0.3998922528E+00  -0.9316896107E-02   0.1843679784E-01  -0.1077532360E-03   0.0000000000E+00   0.0000000000E+00   0.0000000000E+00   0.6704344084E-01  -0.1132224659E+01  -0.7517392507E-02   0.8726162300E-01  -0.2025186712E-02  -0.4865429440E-02
  -0.1798507220E+01   0.7892158133E+00   0.3997759824E+00  -0.1059019961E-01   0.1899291130E-01  -0.2240236377E-03   0.0000000000E+00   0.0000000000E+00   0.0000000000E+00   0.5410924757E-01  -0.1116818944E+01  -0.2552119508E-01   0.6550522144E-01  -0.3273070654E-02  -0.4438899648E-02
  -0.2011874726E+01   0.7955437453E+00   0.3996513093E+00  -0.1187472634E-01   0.1986296527E-01  -0.3486966845E-03   0.0000000000E+00   0.0000000000E+00   0.0000000000E+00   0.1334691649E+00  -0.1009479396E+01   0.3590007229E-01   0.4531346788E-01  -0.5802456848E-02  -0.8407096275E-02
  -0.1793976164E+01   0.9841669493E+00   0.3996266968E+00  -0.9438134364E-02   0.1675286831E-01  -0.3733091889E-03   0.0000000000E+00   0.0000000000E+00   0.0000000000E+00   0.6215316853E-02  -0.1136439776E+01  -0.2748145418E-01   0.5160499261E-01  -0.6016088979E-02  -0.5685180653E-02
  -0.2010667497E+01   0.9911402992E+00   0.3994881025E+00  -0.1066749702E-01   0.1767837320E-01  -0.5119034883E-03   0.0000000000E+00   0.0000000000E+00   0.0000000000E+00   0.4335272877E-01  -0.1090170105E+01   0.1058209003E-02   0.3570840184E-01  -0.6073844430E-02  -0.8872179330E-02
  -0.1791818354E+01   0.1181724622E+01   0.3994976955E+00  -0.8385874484E-02   0.1450999205E-01  -0.5023105398E-03   0.0000000000E+00   0.0000000000E+00   0.0000000000E+00  -0.2556059350E-01  -0.1131415706E+01  -0.9886644970E-02   0.2893646429E-01  -0.2243675526E-02  -0.3748545973E-02
  -0.2009536277E+01   0.1188620617E+01   0.3993502189E+00  -0.9536276882E-02   0.1544802738E-01  -0.6497871393E-03   0.0000000000E+00   0.0000000000E+00   0.0000000000E+00  -0.2389380755E-01  -0.1134764783E+01  -0.7864467767E-02   0.1384154604E-01  -0.1201393858E-02  -0.5893967587E-02
  -0.1791328400E+01   0.1381142398E+01   0.3993985594E+00  -0.7446499738E-02   0.1228405763E-01  -0.6014465522E-03   0.0000000000E+00   0.0000000000E+00   0.0000000000E+00  -0.6909148454E-01  -0.1135057770E+01  -0.1221344258E-01   0.1688526764E-01  -0.5131187746E-03  -0.9154091394E-03
  -0.2008513870E+01   0.1387587759E+01   0.3992485290E+00  -0.8513869571E-02   0.1320060860E-01  -0.7514769561E-03   0.0000000000E+00   0.0000000000E+00   0.0000000000E+00  -0.6432429094E-01  -0.1145161128E+01  -0.4284752786E-03   0.2211204118E-02   0.8452637827E-03  -0.1779675247E-02
  -0.1791805017E+01   0.1581742899E+01   0.3993311578E+00  -0.6573067124E-02   0.1009787877E-01  -0.6688481918E-03   0.0000000000E+00   0.0000000000E+00   0.0000000000E+00  -0.1043816827E+00  -0.1123957844E+01  -0.1435064819E-01   0.1656235942E-01   0.7919685930E-03   0.2322269839E-02
  -0.2007553814E+01   0.1587542970E+01   0.3991832899E+00  -0.7553814273E-02   0.1096864031E-01  -0.8167161062E-03   0.0000000000E+00   0.0000000000E+00   0.0000000000E+00  -0.9010962251E-01  -0.1131839331E+01   0.1183610476E-01   0.2253472635E-02   0.1865190177E-02   0.2366682484E-02
  -0.1792777556E+01   0.1783057400E+01   0.3992973966E+00  -0.5729095643E-02   0.7981250049E-02  -0.7026094147E-03   0.0000000000E+00   0.0000000000E+00   0.0000000000E+00  -0.1378970952E+00  -0.1099836593E+01  -0.2261274442E-01   0.2550779745E-01   0.2243256238E-02   0.6195320216E-02
  -0.2006617832E+01   0.1788110114E+01   0.3991537928E+00  -0.6617832420E-02   0.8787014389E-02  -0.8462131558E-03   0.0000000000E+00   0.0000000000E+00   0.0000000000E+00  -0.1328133699E+00  -0.1123642834E+01  -0.9608645141E-03   0.1080080410E-01   0.3021433921E-02   0.6711804214E-02
  -0.1793969161E+01   0.1984818473E+01   0.3992997431E+00  -0.4882820529E-02   0.5973113130E-02  -0.7002628542E-03   0.0000000000E+00   0.0000000000E+00   0.0000000000E+00  -0.1166035114E+00  -0.1004012565E+01   0.1537898805E-01   0.4314730010E-01   0.4123515046E-02   0.1096288409E-01
  -0.2005671107E+01   0.1989065575E+01   0.3991601142E+00  -0.5671106653E-02   0.6693884746E-02  -0.8398918382E-03   0.0000000000E+00   0.0000000000E+00   0.0000000000E+00  -0.1421786405E+00  -0.1066468851E+01   0.1228560537E-01   0.2789622935E-01   0.5037279981E-02   0.1156040106E-01
  -0.1795219740E+01   0.2186913269E+01   0.3993418915E+00  -0.4009330412E-02   0.4124899255E-02  -0.6581145103E-03   0.0000000000E+00   0.0000000000E+00   0.0000000000E+00  -0.1978586966E+00  -0.9878807687E+00  -0.5955471593E-01   0.6796966845E-01   0.6362814520E-02   0.1682572260E-01
  -0.2004685031E+01   0.2190312655E+01   0.3992044024E+00  -0.4685030842E-02   0.4735024821E-02  -0.7956036285E-03   0.0000000000E+00   0.0000000000E+00   0.0000000000E+00  -0.3655608329E+00  -0.1203052943E+01  -0.1964900221E+00   0.5356433354E-01   0.8121854244E-02   0.1730400751E-01
  -0.1796384449E+01   0.2389347906E+01   0.3994285576E+00  -0.3091448834E-02   0.2504466464E-02  -0.5714484498E-03   0.0000000000E+00   0.0000000000E+00   0.0000000000E+00   0.2478664611E+00  -0.4113225312E+00   0.3794684510E+00   0.9868148557E-01   0.8109752036E-02   0.2369518324E-01
  -0.2003637867E+01   0.2391865565E+01   0.3992922969E+00  -0.3637867454E-02   0.2971245321E-02  -0.7077091440E-03   0.0000000000E+00   0.0000000000E+00   0.0000000000E+00   0.7564818432E-01  -0.6425068632E+00   0.2481688144E+00   0.8941549052E-01   0.1141618663E-01   0.2465646309E-01
  -0.1797237074E+01   0.2592223972E+01   0.3995659411E+00  -0.2119694095E-02   0.1200052456E-02  -0.4340648559E-03   0.0000000000E+00   0.0000000000E+00   0.0000000000E+00  -0.1131227603E+01  -0.1627034390E+01  -0.1023909059E+01   0.1307073723E+00   0.7380664105E-02   0.3122148846E-01
  -0.2002516427E+01   0.2593840351E+01   0.3994360946E+00  -0.2516427282E-02   0.1490340895E-02  -0.5639113807E-03   0.0000000000E+00   0.0000000000E+00   0.0000000000E+00  -0.2113476327E+01  -0.2679655329E+01  -0.1956777584E+01   0.1319840156E+00   0.1239349659E-01   0.3360623356E-01
  -0.1797481739E+01   0.2795713219E+01   0.3997597784E+00  -0.1095259067E-02   0.3223790052E-03  -0.2402276214E-03   0.0000000000E+00   0.0000000000E+00   0.0000000000E+00   0.4415119263E+01   0.4157851086E+01   0.4475031715E+01   0.1631845595E+00   0.1000041213E-02   0.3812723434E-01
  -0.2001319898E+01   0.2796448682E+01   0.3996607006E+00  -0.1319898022E-02   0.4269824326E-03  -0.3393053727E-03   0.0000000000E+00   0.0000000000E+00   0.0000000000E+00   0.5583430229E+01   0.5272120996E+01   0.5687268558E+01   0.1855028407E+00   0.6178755269E-02   0.4933991096E-01
  -0.1797227740E+01   0.3000000000E+01   0.4000000060E+00   0.0000000000E+00   0.0000000000E+00   0.0000000000E+00   0.0000000000E+00   0.0000000000E+00   0.0000000000E+00  -0.1615438340E+02  -0.1621925444E+02  -0.1615444527E+02   0.1811512862E+00   0.1114278782E-04   0.4063896202E-01
  -0.2000000000E+01   0.3000000000E+01   0.4000000060E+00   0.0000000000E+00   0.0000000000E+00   0.0000000000E+00   0.0000000000E+00   0.0000000000E+00   0.0000000000E+00  -0.2293529263E+02  -0.2302737211E+02  -0.2293536970E+02   0.2205165613E+00   0.2575845987E-04   0.5968639235E-01
  -0.1578544365E+01   0.9734662928E+00   0.3997407827E+00  -0.8234724651E-02   0.1614846376E-01  -0.2592232630E-03   0.0000000000E+00   0.0000000000E+00   0.0000000000E+00  -0.2210216507E-01  -0.1174180504E+01  -0.4417429346E-01   0.7086763433E-01  -0.7577350708E-02  -0.5644303332E-02
  -0.1575243033E+01   0.1171431229E+01   0.3996149701E+00  -0.7265483456E-02   0.1388279851E-01  -0.3850359042E-03   0.0000000000E+00   0.0000000000E+00   0.0000000000E+00  -0.3479313511E-01  -0.1136302689E+01  -0.1050391534E-01   0.4941287276E-01  -0.4776419040E-02  -0.3027338288E-02
  -0.1575100876E+01   0.1371663958E+01   0.3995187512E+00  -0.6411055842E-02   0.1166346817E-01  -0.4812548101E-03   0.0000000000E+00   0.0000000000E+00   0.0000000000E+00  -0.7126184167E-01  -0.1120270283E+01  -0.1058881695E-01   0.3748110071E-01  -0.3407696926E-02  -0.5804548313E-03
  -0.1576835424E+01   0.1573304742E+01   0.3994532381E+00  -0.5625513629E-02   0.9514062298E-02  -0.5467679052E-03   0.0000000000E+00   0.0000000000E+00   0.0000000000E+00  -0.8823514279E-01  -0.1079161620E+01  -0.9015864203E-04   0.3679312945E-01  -0.2096458520E-02   0.2227789654E-02
  -0.1579568633E+01   0.1775789726E+01   0.3994194705E+00  -0.4874472542E-02   0.7462846085E-02  -0.5805354748E-03   0.0000000000E+00   0.0000000000E+00   0.0000000000E+00  -0.1079280570E+00  -0.1030867390E+01  -0.4065546131E-03   0.4497873302E-01  -0.7385596037E-03   0.5310279586E-02
  -0.1582779465E+01   0.1978797590E+01   0.3994185359E+00  -0.4129465193E-02   0.5545060431E-02  -0.5814701065E-03   0.0000000000E+00   0.0000000000E+00   0.0000000000E+00  -0.8949312767E-01  -0.9295656446E+00   0.2966463868E-01   0.6091564247E-01   0.6311208218E-03   0.9002845790E-02
  -0.1586157186E+01   0.2182180940E+01   0.3994525057E+00  -0.3368716240E-02   0.3805459986E-02  -0.5475003060E-03   0.0000000000E+00   0.0000000000E+00   0.0000000000E+00  -0.1889325142E+00  -0.9266788927E+00  -0.6682530101E-01   0.8179613083E-01   0.1878886123E-02   0.1343034817E-01
  -0.1589405463E+01   0.2385913911E+01   0.3995234082E+00  -0.2579252528E-02   0.2300801376E-02  -0.4765977818E-03   0.0000000000E+00   0.0000000000E+00   0.0000000000E+00   0.1664234837E+00  -0.4410362498E+00   0.2818991137E+00   0.1046247163E+00   0.2439022571E-02   0.1873189381E-01
  -0.1592068061E+01   0.2590060968E+01   0.3996349964E+00  -0.1753670558E-02   0.1102227720E-02  -0.3650095917E-03   0.0000000000E+00   0.0000000000E+00   0.0000000000E+00  -0.1203019371E+01  -0.1655143161E+01  -0.1107068709E+01   0.1247523989E+00   0.1172814636E-02   0.2445736002E-01
  -0.1593601348E+01   0.2794727165E+01   0.3997921421E+00  -0.8949083278E-03   0.2983345153E-03  -0.2078639216E-03   0.0000000000E+00   0.0000000000E+00   0.0000000000E+00   0.3863623741E+01   0.3630831443E+01   0.3922127555E+01   0.1401132292E+00  -0.3553142964E-02   0.3165224555E-01
  -0.1594253180E+01   0.3000000000E+01   0.4000000060E+00   0.0000000000E+00   0.0000000000E+00   0.0000000000E+00   0.0000000000E+00   0.0000000000E+00   0.0000000000E+00  -0.1506089004E+02  -0.1512133213E+02  -0.1506092886E+02   0.1464999797E+00   0.7534429952E-05   0.3549885968E-01
  -0.1364883403E+01   0.9620755210E+00   0.3998318880E+00  -0.7048232687E-02   0.1564853297E-01  -0.1681179587E-03   0.0000000000E+00   0.0000000000E+00   0.0000000000E+00  -0.6469561549E-01  -0.1217928905E+01  -0.7086150620E-01   0.4712325377E-01  -0.8089198150E-02  -0.6122399648E-02
  -0.1360683102E+01   0.1161242956E+01   0.3997075062E+00  -0.6170531526E-02   0.1335977567E-01  -0.2924997892E-03   0.0000000000E+00   0.0000000000E+00   0.0000000000E+00  -0.4491532966E-01  -0.1136877182E+01  -0.6913193736E-02   0.3219121099E-01  -0.5264714728E-02  -0.2404159453E-02
  -0.1360931407E+01   0.1362652632E+01   0.3996127428E+00  -0.5408536986E-02   0.1114711223E-01  -0.3872631639E-03   0.0000000000E+00   0.0000000000E+00   0.0000000000E+00  -0.8498378823E-01  -0.1113074106E+01  -0.1320635836E-01   0.2229477468E-01  -0.4405975367E-02  -0.6469571242E-03
  -0.1363796908E+01   0.1565444210E+01   0.3995480206E+00  -0.4716237976E-02   0.9032349924E-02  -0.4519853653E-03   0.0000000000E+00   0.0000000000E+00   0.0000000000E+00  -0.9877539765E-01  -0.1058763941E+01  -0.3214437589E-02   0.2293264635E-01  -0.3420101863E-02   0.1855704130E-02
  -0.1368075336E+01   0.1769094632E+01   0.3995131446E+00  -0.4061185959E-02   0.7039952006E-02  -0.4868613639E-03   0.0000000000E+00   0.0000000000E+00   0.0000000000E+00  -0.1171180226E+00  -0.1000964339E+01  -0.6158357227E-02   0.3050118804E-01  -0.2457893135E-02   0.4279994729E-02
  -0.1373049278E+01   0.1973293751E+01   0.3995076720E+00  -0.3418697605E-02   0.5199641247E-02  -0.4923339798E-03   0.0000000000E+00   0.0000000000E+00   0.0000000000E+00  -0.9994950258E-01  -0.8954100059E+00   0.1944544023E-01   0.4433990581E-01  -0.1452075688E-02   0.7176674069E-02
  -0.1378271228E+01   0.2177887138E+01   0.3995330248E+00  -0.2769477587E-02   0.3548558324E-02  -0.4669812269E-03   0.0000000000E+00   0.0000000000E+00   0.0000000000E+00  -0.1827205245E+00  -0.8740348150E+00  -0.6267839061E-01   0.6174836663E-01  -0.2912305444E-03   0.1068605270E-01
  -0.1383282694E+01   0.2382832174E+01   0.3995903353E+00  -0.2105033503E-02   0.2133974492E-02  -0.4096706980E-03   0.0000000000E+00   0.0000000000E+00   0.0000000000E+00   0.1542185392E+00  -0.4094491614E+00   0.2669938175E+00   0.8031164594E-01   0.8696830546E-03   0.1509041180E-01
  -0.1387430494E+01   0.2588155017E+01   0.3996835253E+00  -0.1419493603E-02   0.1016367160E-02  -0.3164807405E-03   0.0000000000E+00   0.0000000000E+00   0.0000000000E+00  -0.1059314229E+01  -0.1474599467E+01  -0.9652781078E+00   0.9726565965E-01   0.1290408360E-02   0.2025086495E-01
  -0.1390026167E+01   0.2793884028E+01   0.3998180312E+00  -0.7168767538E-03   0.2729775036E-03  -0.1819748241E-03   0.0000000000E+00   0.0000000000E+00   0.0000000000E+00   0.3543276222E+01   0.3332236932E+01   0.3601586429E+01   0.1104440149E+00  -0.1077486267E-02   0.2723515966E-01
  -0.1391371730E+01   0.3000000000E+01   0.4000000060E+00   0.0000000000E+00   0.0000000000E+00   0.0000000000E+00   0.0000000000E+00   0.0000000000E+00   0.0000000000E+00  -0.1362786361E+02  -0.1368251747E+02  -0.1362788015E+02   0.1163488769E+00   0.5185334438E-05   0.3107552522E-01
  -0.1153200829E+01   0.9539571252E+00   0.3998895170E+00  -0.5877459235E-02   0.1503179918E-01  -0.1104889876E-03   0.0000000000E+00   0.0000000000E+00   0.0000000000E+00  -0.9153232702E-01  -0.1238037503E+01  -0.6917232086E-01   0.6205485134E-02  -0.1203824658E-01  -0.6576261814E-02
  -0.1149298606E+01   0.1155754828E+01   0.3997735420E+00  -0.5100185588E-02   0.1270844848E-01  -0.2264639521E-03   0.0000000000E+00   0.0000000000E+00   0.0000000000E+00  -0.1502464976E-01  -0.1090621584E+01   0.4276919694E-01  -0.7205093606E-02  -0.7421391067E-02  -0.1029674425E-02
  -0.1150439062E+01   0.1358585295E+01   0.3996844749E+00  -0.4441542411E-02   0.1050990497E-01  -0.3155311332E-03   0.0000000000E+00   0.0000000000E+00   0.0000000000E+00  -0.9600546366E-01  -0.1096608828E+01  -0.9124926117E-02  -0.1847666691E-01  -0.4879258770E-02  -0.7611445066E-03
  -0.1154390851E+01   0.1562197122E+01   0.3996257091E+00  -0.3848951084E-02   0.8447801789E-02  -0.3742969091E-03   0.0000000000E+00   0.0000000000E+00   0.0000000000E+00  -0.1044321660E+00  -0.1026688922E+01   0.5502575300E-04  -0.1376480226E-01  -0.2426279246E-02   0.1785767260E-02
  -0.1159872058E+01   0.1766453556E+01   0.3995936402E+00  -0.3293157755E-02   0.6536775858E-02  -0.4063657581E-03   0.0000000000E+00   0.0000000000E+00   0.0000000000E+00  -0.1236530100E+00  -0.9615123904E+00  -0.9013561805E-02  -0.1760399530E-02  -0.7541771767E-03   0.3506452945E-02
  -0.1166121087E+01   0.1971197922E+01   0.3995865748E+00  -0.2754177417E-02   0.4797062466E-02  -0.4134312238E-03   0.0000000000E+00   0.0000000000E+00   0.0000000000E+00  -0.1039873312E+00  -0.8481825392E+00   0.1540052486E-01   0.1671846320E-01   0.3322547881E-03   0.5762475313E-02
  -0.1172607398E+01   0.2176320565E+01   0.3996057644E+00  -0.2214408324E-02   0.3255614768E-02  -0.3942416226E-03   0.0000000000E+00   0.0000000000E+00   0.0000000000E+00  -0.1734687262E+00  -0.8125277610E+00  -0.5597000695E-01   0.3755067170E-01   0.1174485850E-02   0.8459955818E-02
  -0.1178769942E+01   0.2381781710E+01   0.3996516213E+00  -0.1670711974E-02   0.1948490293E-02  -0.3483847179E-03   0.0000000000E+00   0.0000000000E+00   0.0000000000E+00   0.1325870727E+00  -0.3827211496E+00   0.2421432023E+00   0.5770656339E-01   0.1862965878E-02   0.1204362444E-01
  -0.1183882406E+01   0.2587577601E+01   0.3997283607E+00  -0.1118116170E-02   0.9243705324E-03  -0.2716452952E-03   0.0000000000E+00   0.0000000000E+00   0.0000000000E+00  -0.9703444162E+00  -0.1346140590E+01  -0.8787769890E+00   0.7481770503E-01   0.1954704282E-02   0.1653771747E-01
  -0.1187223291E+01   0.2793682898E+01   0.3998415834E+00  -0.5605009100E-03   0.2475581032E-03  -0.1584225997E-03   0.0000000000E+00   0.0000000000E+00   0.0000000000E+00   0.3174231557E+01   0.2985277451E+01   0.3232062323E+01   0.8631371361E-01  -0.2805534109E-03   0.2327193180E-01
  -0.1189031000E+01   0.3000000000E+01   0.4000000060E+00   0.0000000000E+00   0.0000000000E+00   0.0000000000E+00   0.0000000000E+00   0.0000000000E+00   0.0000000000E+00  -0.1233285760E+02  -0.1238230280E+02  -0.1233286504E+02   0.9058007334E-01  -0.2287903740E-05   0.2719714702E-01
  -0.9421784004E+00   0.9529446838E+00   0.3999251694E+00  -0.4729302431E-02   0.1395498484E-01  -0.7483663048E-04   0.0000000000E+00   0.0000000000E+00   0.0000000000E+00  -0.3262499495E+00  -0.1446668362E+01  -0.2694692553E+00  -0.1666231661E+00   0.3114797176E-02  -0.5816024673E-02
  -0.9417986927E+00   0.1159234616E+01   0.3998345688E+00  -0.4058247728E-02   0.1163134595E-01  -0.1654371989E-03   0.0000000000E+00   0.0000000000E+00   0.0000000000E+00  -0.1545085983E+00  -0.1198555899E+01  -0.8787088318E-01  -0.1293588247E+00   0.7984735462E-02   0.1009297806E-02
  -0.9449863274E+00   0.1363215171E+01   0.3997618716E+00  -0.3517969438E-02   0.9518590906E-02  -0.2381343670E-03   0.0000000000E+00   0.0000000000E+00   0.0000000000E+00  -0.1984729308E+00  -0.1150369678E+01  -0.1121448850E+00  -0.1131152281E+00   0.8498611527E-02  -0.5503390411E-03
  -0.9500488632E+00   0.1566721571E+01   0.3997145754E+00  -0.3030776230E-02   0.7591620582E-02  -0.2854306228E-03   0.0000000000E+00   0.0000000000E+00   0.0000000000E+00  -0.1356904188E+00  -0.9971409404E+00  -0.3969518358E-01  -0.7933644011E-01   0.7897032536E-02   0.1612015038E-02
  -0.9562386447E+00   0.1770494974E+01   0.3996856513E+00  -0.2576904705E-02   0.5840334112E-02  -0.3143547387E-03   0.0000000000E+00   0.0000000000E+00   0.0000000000E+00  -0.1193822550E+00  -0.8897599231E+00  -0.1691422861E-01  -0.4858474505E-01   0.6616356243E-02   0.2185658270E-02
  -0.9630359853E+00   0.1974651694E+01   0.3996746141E+00  -0.2141281317E-02   0.4267574153E-02  -0.3253918805E-03   0.0000000000E+00   0.0000000000E+00   0.0000000000E+00  -0.8299201998E-01  -0.7584247272E+00   0.2353271124E-01  -0.1703000664E-01   0.5209953596E-02   0.3708122950E-02
  -0.9699552759E+00   0.2179141044E+01   0.3996845128E+00  -0.1707385897E-02   0.2887013678E-02  -0.3154931659E-03   0.0000000000E+00   0.0000000000E+00   0.0000000000E+00  -0.1346570160E+00  -0.7089679172E+00  -0.2935498024E-01   0.1110542469E-01   0.4105733300E-02   0.5705767614E-02
  -0.9764652827E+00   0.2383934005E+01   0.3997162230E+00  -0.1278636671E-02   0.1723514906E-02  -0.2837829559E-03   0.0000000000E+00   0.0000000000E+00   0.0000000000E+00   0.1359030759E+00  -0.3234831454E+00   0.2353775518E+00   0.3438678122E-01   0.3442434871E-02   0.8703093300E-02
  -0.9819104885E+00   0.2589028737E+01   0.3997750420E+00  -0.8500434841E-03   0.8157667357E-03  -0.2249640088E-03   0.0000000000E+00   0.0000000000E+00   0.0000000000E+00  -0.8354277220E+00  -0.1168124478E+01  -0.7512148750E+00   0.5251841252E-01   0.2910877407E-02   0.1285026591E-01
  -0.9856299877E+00   0.2794412097E+01   0.3998667663E+00  -0.4246357337E-03   0.2178771811E-03  -0.1332396910E-03   0.0000000000E+00   0.0000000000E+00   0.0000000000E+00   0.2806521362E+01   0.2640578790E+01   0.2860458965E+01   0.6424947392E-01   0.9229512424E-03   0.1928444798E-01
  -0.9877309200E+00   0.3000000000E+01   0.4000000060E+00   0.0000000000E+00   0.0000000000E+00   0.0000000000E+00   0.0000000000E+00   0.0000000000E+00   0.0000000000E+00  -0.1086439988E+02  -0.1090794298E+02  -0.1086439908E+02   0.6879723540E-01  -0.3726043765E-05   0.2308611625E-01
  -0.7272193328E+00   0.9604559816E+00   0.4001006963E+00  -0.3591169764E-02   0.1171186364E-01   0.1006902696E-03   0.0000000000E+00   0.0000000000E+00   0.0000000000E+00  -0.8051613619E-01  -0.1088233882E+01  -0.1076459683E+00  -0.2651019526E+00   0.3357532679E-01   0.1543002864E-02
  -0.7353202189E+00   0.1170128972E+01   0.4000067256E+00  -0.3053732944E-02   0.9793431647E-02   0.6719563303E-05   0.0000000000E+00   0.0000000000E+00   0.0000000000E+00   0.1319178855E+00  -0.7708308028E+00   0.1325698159E+00  -0.1888387985E+00   0.2363414075E-01   0.2850675918E-03
  -0.7416067127E+00   0.1373154863E+01   0.3999232682E+00  -0.2648949677E-02   0.8059483163E-02  -0.7673775707E-04   0.0000000000E+00   0.0000000000E+00   0.0000000000E+00   0.7300411908E-01  -0.7512343497E+00   0.9833535097E-01  -0.1513614386E+00   0.1841010171E-01  -0.1581561583E-02
  -0.7478421996E+00   0.1575267881E+01   0.3998576677E+00  -0.2273149555E-02   0.6464811261E-02  -0.1423383180E-03   0.0000000000E+00   0.0000000000E+00   0.0000000000E+00   0.5095182663E-01  -0.6928875683E+00   0.9891034495E-01  -0.1010756302E+00   0.1350795744E-01  -0.9075309069E-03
  -0.7545839405E+00   0.1777814882E+01   0.3998088118E+00  -0.1922533486E-02   0.4997981638E-02  -0.1911941930E-03   0.0000000000E+00   0.0000000000E+00   0.0000000000E+00   0.6055899569E-02  -0.6613172759E+00   0.7107280473E-01  -0.6348869363E-01   0.9817243864E-02  -0.4565345535E-03
  -0.7617044269E+00   0.1980787780E+01   0.3997780026E+00  -0.1588445912E-02   0.3666550447E-02  -0.2220034168E-03   0.0000000000E+00   0.0000000000E+00   0.0000000000E+00  -0.8512590043E-02  -0.5946038971E+00   0.7000753466E-01  -0.2868706188E-01   0.6914425486E-02   0.9519947296E-03
  -0.7688134536E+00   0.2184018368E+01   0.3997689123E+00  -0.1254998633E-02   0.2488368499E-02  -0.2310936632E-03   0.0000000000E+00   0.0000000000E+00   0.0000000000E+00  -0.8023895505E-01  -0.5795422407E+00   0.4148788657E-02  -0.5886327157E-03   0.4805588233E-02   0.2863216965E-02
  -0.7755340069E+00   0.2387480189E+01   0.3997815298E+00  -0.9333218608E-03   0.1489089475E-02  -0.2184761556E-03   0.0000000000E+00   0.0000000000E+00   0.0000000000E+00   0.1386530592E+00  -0.2610669393E+00   0.2229938958E+00   0.2065912279E-01   0.3546858040E-02   0.5696735996E-02
  -0.7813616272E+00   0.2591217019E+01   0.3998209429E+00  -0.6173131507E-03   0.7061687070E-03  -0.1790631430E-03   0.0000000000E+00   0.0000000000E+00   0.0000000000E+00  -0.7210255259E+00  -0.1010489712E+01  -0.6474428724E+00   0.3645935292E-01   0.2764819403E-02   0.9679996134E-02
  -0.7856762947E+00   0.2795318379E+01   0.3998914664E+00  -0.3090447341E-03   0.1890791189E-03  -0.1085396490E-03   0.0000000000E+00   0.0000000000E+00   0.0000000000E+00   0.2447679060E+01   0.2303547897E+01   0.2495490049E+01   0.4633059804E-01   0.1160584204E-02   0.1562822361E-01
  -0.7878651620E+00   0.3000000000E+01   0.4000000060E+00   0.0000000000E+00   0.0000000000E+00   0.0000000000E+00   0.0000000000E+00   0.0000000000E+00   0.0000000000E+00  -0.9491758796E+01  -0.9529779710E+01  -0.9491747711E+01   0.5031261716E-01  -0.1239834342E-04   0.1902948126E-01
  -0.5875851580E+00   0.2798719299E+01   0.3999129373E+00  -0.2057020249E-03   0.1632086271E-03  -0.8706870014E-04   0.0000000000E+00   0.0000000000E+00   0.0000000000E+00   0.2158260449E+01   0.2031315381E+01   0.2198781526E+01   0.3104941321E-01   0.1087717213E-02   0.1254863316E-01
  -0.5894951220E+00   0.3000000000E+01   0.4000000060E+00   0.0000000000E+00   0.0000000000E+00   0.0000000000E+00   0.0000000000E+00   0.0000000000E+00   0.0000000000E+00  -0.8363407892E+01  -0.8396897684E+01  -0.8363392479E+01   0.3402140633E-01  -0.2145887099E-04   0.1564281717E-01
  -0.3904138719E+00   0.2802242407E+01   0.3999306048E+00  -0.1130619259E-03   0.1424667562E-03  -0.6940119462E-04   0.0000000000E+00   0.0000000000E+00   0.0000000000E+00   0.1908320471E+01   0.1794648526E+01   0.1941504477E+01   0.1680704611E-01   0.1157854963E-02   0.1012958964E-01
  -0.3923090400E+00   0.3000000000E+01   0.4000000060E+00   0.0000000000E+00   0.0000000000E+00   0.0000000000E+00   0.0000000000E+00   0.0000000000E+00   0.0000000000E+00  -0.7455948225E+01  -0.7485874470E+01  -0.7455969522E+01   0.1891524195E-01  -0.1018685695E-04   0.1280018225E-01
  -0.1899404591E+00   0.2803742252E+01   0.3999440383E+00  -0.2688813948E-04   0.1271621541E-03  -0.5596766677E-04   0.0000000000E+00   0.0000000000E+00   0.0000000000E+00   0.1730989530E+01   0.1627286233E+01   0.1758065199E+01   0.3848099095E-02   0.9065845083E-03   0.8288632267E-02
  -0.1922578220E+00   0.3000000000E+01   0.4000000060E+00   0.0000000000E+00   0.0000000000E+00   0.0000000000E+00   0.0000000000E+00   0.0000000000E+00   0.0000000000E+00  -0.6717758500E+01  -0.6744628957E+01  -0.6717731339E+01   0.4133652931E-02  -0.3567198006E-05   0.1044823027E-01
   0.1406543133E-01   0.2803274901E+01   0.3999488305E+00   0.5693133234E-04   0.1223406182E-03  -0.5117548741E-04   0.0000000000E+00   0.0000000000E+00   0.0000000000E+00   0.1661915819E+01   0.1562010253E+01   0.1686978419E+01  -0.7734631505E-02  -0.1587771731E-03   0.7517328235E-02
   0.1392890100E-01   0.3000000000E+01   0.4000000060E+00   0.0000000000E+00   0.0000000000E+00   0.0000000000E+00   0.0000000000E+00   0.0000000000E+00   0.0000000000E+00  -0.6453098782E+01  -0.6478887175E+01  -0.6453060990E+01  -0.1050546944E-01   0.7929769885E-05   0.9587872583E-02
  -0.5840012023E+00   0.2597870703E+01   0.3998597921E+00  -0.4115893420E-03   0.6078425815E-03  -0.1402138557E-03   0.0000000000E+00   0.0000000000E+00   0.0000000000E+00  -0.6343283971E+00  -0.8874706915E+00  -0.5719576901E+00   0.2404630673E-01   0.2268511026E-02   0.7058349107E-02
  -0.3876285358E+00   0.2604504441E+01   0.3998917366E+00  -0.2309488048E-03   0.5279511104E-03  -0.1082693601E-03   0.0000000000E+00   0.0000000000E+00   0.0000000000E+00  -0.5640810600E+00  -0.7876842395E+00  -0.5128321799E+00   0.1172873892E-01   0.2093506733E-02   0.5065791997E-02
  -0.1879815516E+00   0.2607211827E+01   0.3999150253E+00  -0.6688155183E-04   0.4718273422E-03  -0.8498072268E-04   0.0000000000E+00   0.0000000000E+00   0.0000000000E+00  -0.5019517591E+00  -0.7044749730E+00  -0.4597630191E+00   0.2173876240E-02   0.1454523501E-02   0.3676352811E-02
   0.1467671045E-01   0.2606419879E+01   0.3999238876E+00   0.9047444660E-04   0.4535485638E-03  -0.7611838525E-04   0.0000000000E+00   0.0000000000E+00   0.0000000000E+00  -0.4776212847E+00  -0.6727963938E+00  -0.4391947936E+00  -0.3821109090E-02  -0.2552039011E-03   0.3138686054E-02
  -0.5792524182E+00   0.2397305056E+01   0.3998360744E+00  -0.6292422282E-03   0.1277966488E-02  -0.1639316077E-03   0.0000000000E+00   0.0000000000E+00   0.0000000000E+00   0.1222700956E+00  -0.2258327944E+00   0.1916570636E+00   0.1203175778E-01   0.3174272040E-02   0.3319726612E-02
  -0.3841968269E+00   0.2406872549E+01   0.3998820799E+00  -0.3631499274E-03   0.1103919124E-02  -0.1179260703E-03   0.0000000000E+00   0.0000000000E+00   0.0000000000E+00   0.1152803760E+00  -0.1894426444E+00   0.1691291072E+00   0.2201673389E-02   0.3093754283E-02   0.1520771764E-02
  -0.1858150676E+00   0.2410702681E+01   0.3999151842E+00  -0.1227126038E-03   0.9841714595E-03  -0.8482183719E-04   0.0000000000E+00   0.0000000000E+00   0.0000000000E+00   0.1200853456E+00  -0.1539612655E+00   0.1616226967E+00  -0.2423922204E-02   0.1956313339E-02   0.3264862649E-03
   0.1564798217E-01   0.2409748680E+01   0.3999273870E+00   0.1073491721E-03   0.9454597070E-03  -0.7261903727E-04   0.0000000000E+00   0.0000000000E+00   0.0000000000E+00   0.1181743006E+00  -0.1459231775E+00   0.1546221881E+00  -0.1067394592E-02  -0.4153745985E-03  -0.7931332472E-04
  -0.5737905845E+00   0.2196947680E+01   0.3998383360E+00  -0.8565534597E-03   0.2128710390E-02  -0.1616700325E-03   0.0000000000E+00   0.0000000000E+00   0.0000000000E+00  -0.7877766766E-01  -0.5119516667E+00  -0.1369302927E-01  -0.4783026105E-02   0.4585986858E-02   0.7294319609E-03
  -0.3803170515E+00   0.2209361785E+01   0.3998989662E+00  -0.5074635044E-03   0.1826274790E-02  -0.1010398225E-03   0.0000000000E+00   0.0000000000E+00   0.0000000000E+00  -0.5418351185E-01  -0.4295558566E+00  -0.1013987305E-01  -0.1118308968E-01   0.4597026350E-02  -0.1020241319E-02
  -0.1840141491E+00   0.2215740075E+01   0.3999417245E+00  -0.1925161025E-03   0.1616345384E-02  -0.5828153561E-04   0.0000000000E+00   0.0000000000E+00   0.0000000000E+00  -0.3886362132E-01  -0.3740946388E+00  -0.1106905555E-01  -0.8665632079E-02   0.2632850383E-02  -0.2266589000E-02
   0.1677439141E-01   0.2213293434E+01   0.3999574624E+00   0.1093054102E-03   0.1555324071E-02  -0.4254363907E-04   0.0000000000E+00   0.0000000000E+00   0.0000000000E+00  -0.2752842698E-01  -0.3499605896E+00  -0.6055797419E-02   0.2184875793E-02  -0.5903274787E-03  -0.2486931867E-02
  -0.5679735850E+00   0.1996759453E+01   0.3998620205E+00  -0.1101584033E-02   0.3124513317E-02  -0.1379854787E-03   0.0000000000E+00   0.0000000000E+00   0.0000000000E+00  -0.2601536211E-01  -0.5327409568E+00   0.2758189815E-01  -0.2874541908E-01   0.6875106964E-02  -0.9699618982E-03
  -0.3767867057E+00   0.2013400126E+01   0.3999390797E+00  -0.6723376528E-03   0.2653165684E-02  -0.6092628927E-04   0.0000000000E+00   0.0000000000E+00   0.0000000000E+00   0.1561103837E-01  -0.4194638806E+00   0.3936311609E-01  -0.3118507598E-01   0.7333900316E-02  -0.2564032476E-02
  -0.1851715418E+00   0.2026879536E+01   0.3999922377E+00  -0.2842818217E-03   0.2316465532E-02  -0.7768277386E-05   0.0000000000E+00   0.0000000000E+00   0.0000000000E+00   0.4864303994E-01  -0.3372409063E+00   0.4936922930E-01  -0.1816777114E-01   0.3737671434E-02  -0.3781245957E-02
   0.1736295596E-01   0.2018495752E+01   0.4000127875E+00   0.9489096040E-04   0.2241321616E-02   0.1278153840E-04   0.0000000000E+00   0.0000000000E+00   0.0000000000E+00   0.4490642043E-01  -0.3242901141E+00   0.3880784023E-01   0.5442511969E-02  -0.9517905480E-03  -0.3886744335E-02
  -0.5620605691E+00   0.1796790497E+01   0.3999069944E+00  -0.1346205109E-02   0.4240766845E-02  -0.9301160552E-04   0.0000000000E+00   0.0000000000E+00   0.0000000000E+00  -0.3036811004E-01  -0.6049423777E+00   0.3437438516E-02  -0.5987078632E-01   0.9826195754E-02  -0.2315358128E-02
  -0.3727632244E+00   0.1816924906E+01   0.4000012021E+00  -0.8375424141E-03   0.3564215885E-02   0.1196081084E-05   0.0000000000E+00   0.0000000000E+00   0.0000000000E+00   0.3259121163E-01  -0.4537115407E+00   0.2750488369E-01  -0.5938546358E-01   0.1054451694E-01  -0.3835701423E-02
  -0.1832115910E+00   0.1833377881E+01   0.4000643770E+00  -0.3794989806E-03   0.3088281064E-02   0.6437104941E-04   0.0000000000E+00   0.0000000000E+00   0.0000000000E+00   0.6777814313E-01  -0.3571498654E+00   0.3513750899E-01  -0.3195877038E-01   0.4928423871E-02  -0.4480758971E-02
   0.1831214075E-01   0.1823326171E+01   0.4000896319E+00   0.6753875202E-04   0.2978501365E-02   0.8962589741E-04   0.0000000000E+00   0.0000000000E+00   0.0000000000E+00   0.6044811647E-01  -0.3439586595E+00   0.1956494804E-01   0.7998452351E-02  -0.1100427664E-02  -0.4811960447E-02
  -0.5561991834E+00   0.1597304949E+01   0.3999713165E+00  -0.1605262431E-02   0.5455268717E-02  -0.2868952422E-04   0.0000000000E+00   0.0000000000E+00   0.0000000000E+00  -0.1898476039E-01  -0.6551162754E+00  -0.1050480264E-01  -0.9473946413E-01   0.1387697416E-01  -0.3385188647E-02
  -0.3684401098E+00   0.1620650622E+01   0.4000858395E+00  -0.1015055765E-02   0.4528852343E-02   0.8583352602E-04   0.0000000000E+00   0.0000000000E+00   0.0000000000E+00   0.9172965112E-01  -0.4370524139E+00   0.4911581199E-01  -0.9180291281E-01   0.1468252723E-01  -0.4774343387E-02
  -0.1807947577E+00   0.1639460628E+01   0.4001594444E+00  -0.4857596558E-03   0.3890937577E-02   0.1594384314E-03   0.0000000000E+00   0.0000000000E+00   0.0000000000E+00   0.1171553547E+00  -0.3390787236E+00   0.4097411481E-01  -0.4570832474E-01   0.6233966272E-02  -0.5754718824E-02
   0.1931738155E-01   0.1628563825E+01   0.4001884686E+00   0.3079754692E-04   0.3737154593E-02   0.1884625823E-03   0.0000000000E+00   0.0000000000E+00   0.0000000000E+00   0.1128915175E+00  -0.3204050149E+00   0.2687551819E-01   0.1221803551E-01  -0.1418346207E-02  -0.5608276500E-02
  -0.5499626846E+00   0.1398689302E+01   0.4000557631E+00  -0.1879438612E-02   0.6747631853E-02   0.5575710225E-04   0.0000000000E+00   0.0000000000E+00   0.0000000000E+00   0.7247031641E-02  -0.6923518450E+00  -0.1945215914E-01  -0.1421740919E+00   0.1924901525E-01  -0.4475834150E-02
  -0.3633650903E+00   0.1425469538E+01   0.4001907336E+00  -0.1202500267E-02   0.5517388043E-02   0.1907275572E-03   0.0000000000E+00   0.0000000000E+00   0.0000000000E+00   0.1395279707E+00  -0.4297745247E+00   0.4960540701E-01  -0.1387166474E+00   0.1971401427E-01  -0.6057662962E-02
  -0.1794535302E+00   0.1449690539E+01   0.4002718888E+00  -0.6057551988E-03   0.4684999108E-02   0.2718828370E-03   0.0000000000E+00   0.0000000000E+00   0.0000000000E+00   0.2065363455E+00  -0.2742194337E+00   0.7966943089E-01  -0.6779890716E-01   0.7492844355E-02  -0.5595213382E-02
   0.2020022432E-01   0.1435469773E+01   0.4003046362E+00  -0.2028668278E-04   0.4491473408E-02   0.3046302117E-03   0.0000000000E+00   0.0000000000E+00   0.0000000000E+00   0.1487096207E+00  -0.3044647725E+00   0.1270719524E-01   0.1237119521E-01  -0.1728322931E-02  -0.6178489417E-02
  -0.5419567865E+00   0.1201116753E+01   0.4001683281E+00  -0.2152745516E-02   0.8093553069E-02   0.1683220724E-03   0.0000000000E+00   0.0000000000E+00   0.0000000000E+00   0.2557037290E-01  -0.7304299207E+00  -0.4924849546E-01  -0.1893498411E+00   0.2787298438E-01  -0.8882096280E-02
  -0.3562611005E+00   0.1232978037E+01   0.4003207054E+00  -0.1364555477E-02   0.6499107101E-02   0.3206993606E-03   0.0000000000E+00   0.0000000000E+00   0.0000000000E+00   0.2573252828E+00  -0.3533601418E+00   0.1029954109E+00  -0.1874397007E+00   0.2314726445E-01  -0.8454622108E-02
  -0.1703062000E+00   0.1250059538E+01   0.4004021135E+00  -0.6827949708E-03   0.5491667651E-02   0.4021075104E-03   0.0000000000E+00   0.0000000000E+00   0.0000000000E+00   0.2099323991E+00  -0.2917628044E+00   0.2935368517E-01  -0.8871271047E-01   0.8359140275E-02  -0.6237043759E-02
   0.2065387106E-01   0.1246648008E+01   0.4004313328E+00  -0.5526393598E-04   0.5213787875E-02   0.4313267696E-03   0.0000000000E+00   0.0000000000E+00   0.0000000000E+00   0.2251073111E+00  -0.2426605741E+00   0.3696519626E-01   0.1573741946E-01  -0.1539250216E-02  -0.6284919546E-02
  -0.5291901731E+00   0.1004630968E+01   0.4003197572E+00  -0.2485623149E-02   0.9426995570E-02   0.3197512239E-03   0.0000000000E+00   0.0000000000E+00   0.0000000000E+00   0.3530943114E+00  -0.4821116269E+00   0.1918466721E+00  -0.2539077029E+00   0.3881475877E-01  -0.5413165931E-02
  -0.3442375401E+00   0.1045005624E+01   0.4004627230E+00  -0.1558516119E-02   0.7415354092E-02   0.4627170414E-03   0.0000000000E+00   0.0000000000E+00   0.0000000000E+00   0.4042936822E+00  -0.2383525657E+00   0.1846991961E+00  -0.2282350082E+00   0.2261456406E-01  -0.4708832604E-02
  -0.1647614016E+00   0.1068402633E+01   0.4005319855E+00  -0.8149516324E-03   0.6214002974E-02   0.5319795144E-03   0.0000000000E+00   0.0000000000E+00   0.0000000000E+00   0.3509800653E+00  -0.1593961246E+00   0.1205645816E+00  -0.9416349540E-01   0.9289231492E-02  -0.6729951679E-02
   0.1383763775E-01   0.1072967340E+01   0.4005499063E+00  -0.1740432477E-03   0.5857040195E-02   0.5499002809E-03   0.0000000000E+00   0.0000000000E+00   0.0000000000E+00   0.3737866542E+00  -0.1030633405E+00   0.1413423344E+00   0.3936299614E-01  -0.5308358014E-02  -0.6415154106E-02
  -0.5032426829E+00   0.8106477363E+00   0.4004301683E+00  -0.2727281949E-02   0.1061333229E-01   0.4301623139E-03   0.0000000000E+00   0.0000000000E+00   0.0000000000E+00   0.5393026677E+00  -0.3064338211E+00   0.3748980394E+00  -0.3488591506E+00   0.4492823907E-01   0.1476199370E-01
  -0.3254071618E+00   0.8715035913E+00   0.4005651060E+00  -0.1750602772E-02   0.8178710343E-02   0.5650999956E-03   0.0000000000E+00   0.0000000000E+00   0.0000000000E+00   0.3140586826E+00  -0.3470823816E+00   0.7174567864E-01  -0.2691038357E+00   0.2676563237E-01   0.4801457947E-03
  -0.1585097739E+00   0.9063081812E+00   0.4006391631E+00  -0.1014692919E-02   0.6822295193E-02   0.6391571309E-03   0.0000000000E+00   0.0000000000E+00   0.0000000000E+00   0.3745690273E+00  -0.1326444775E+00   0.1151174824E+00  -0.1136237325E+00   0.1458739371E-01  -0.8474170019E-02
   0.4934849784E-02   0.9151036809E+00   0.4006592780E+00  -0.3911072163E-03   0.6423658875E-02   0.6592720079E-03   0.0000000000E+00   0.0000000000E+00   0.0000000000E+00   0.3718565857E+00  -0.1078388006E+00   0.1015365332E+00   0.4802792775E-01  -0.6309433613E-02  -0.1147997846E-01
  -0.1356324631E+00   0.7451829051E+00   0.4007582958E+00  -0.1116477063E-02   0.7344518116E-02   0.7582897627E-03   0.0000000000E+00   0.0000000000E+00   0.0000000000E+00   0.1842962665E+00  -0.3529065358E+00  -0.1358637910E+00  -0.1298494993E+00   0.2309239172E-01  -0.1429974629E-01
  -0.5372722818E-03   0.7569838073E+00   0.4007814867E+00  -0.5372722818E-03   0.6983807333E-02   0.7814806901E-03   0.0000000000E+00   0.0000000000E+00   0.0000000000E+00   0.1305207367E+00  -0.3687954644E+00  -0.2015811893E+00   0.3393584729E-01  -0.3152409471E-02  -0.2024417125E-01
  -0.2717288406E+00   0.7082815968E+00   0.4006726809E+00  -0.1779702561E-02   0.8547743831E-02   0.6726748846E-03   0.0000000000E+00   0.0000000000E+00   0.0000000000E+00   0.1487754058E-01  -0.6688633632E+00  -0.2656635178E+00  -0.2866178936E+00   0.4483560305E-01   0.1155469815E-02
  -0.4066596264E+00   0.6425622863E+00   0.4005154049E+00  -0.2637081386E-02   0.1068748632E-01   0.5153988957E-03   0.0000000000E+00   0.0000000000E+00   0.0000000000E+00   0.9068541617E-01  -0.8544393603E+00  -0.1106712796E+00  -0.3743322152E+00   0.6414973681E-01   0.4065732987E-01
   0.6573648741E+00  -0.6269649676E+00   0.4018670187E+00   0.2576916059E-02   0.3755136243E-01   0.1867012732E-02   0.0000000000E+00   0.0000000000E+00   0.0000000000E+00   0.7529880044E-01  -0.1053937192E+01   0.9069888239E-01  -0.3457629381E+00  -0.3029292964E-01  -0.3479777052E-01
   0.7782229339E+00  -0.3974820562E+00   0.4011588882E+00   0.4101827917E-02   0.3308145277E-01   0.1158882214E-02   0.0000000000E+00   0.0000000000E+00   0.0000000000E+00  -0.6575921850E-02  -0.1322076308E+01   0.2244749260E+00  -0.2262917422E+00   0.4396738238E-01  -0.7061940821E-01
   0.6563302652E+00  -0.3361076559E+00   0.4007989513E+00   0.3696777197E-02   0.3344546313E-01   0.7989453275E-03   0.0000000000E+00   0.0000000000E+00   0.0000000000E+00  -0.1830837922E+01  -0.3380231845E+01  -0.1441368492E+01  -0.2338166649E+00   0.1529717851E-01  -0.9273004071E-01
   0.5300852512E+00  -0.4950846044E+00   0.4015515050E+00   0.2254352184E-02   0.3773293861E-01   0.1551499050E-02   0.0000000000E+00   0.0000000000E+00   0.0000000000E+00  -0.3640322939E+00  -0.1720026097E+01  -0.3741306345E+00  -0.3913942897E+00  -0.6646184873E-01  -0.8490007575E-01
   0.8499153067E+00  -0.1835722408E+00   0.4006331488E+00   0.5581896695E-02   0.2904944825E-01   0.6331427777E-03   0.0000000000E+00   0.0000000000E+00   0.0000000000E+00   0.3534112585E-01  -0.1482689717E+01   0.3602862178E+00  -0.7793781472E-01   0.6234347632E-01  -0.4213613081E-01
   0.7310424880E+00  -0.1584988832E+00   0.4003167592E+00   0.4936499991E-02   0.2930441481E-01   0.3167532200E-03   0.0000000000E+00   0.0000000000E+00   0.0000000000E+00  -0.2194213663E+01  -0.3965843541E+01  -0.1699887367E+01  -0.8857118515E-01   0.6833199780E-01  -0.4445968259E-01
   0.8779019369E+00   0.2359929292E-01   0.4002876278E+00   0.6248618910E-02   0.2529770392E-01   0.2876218003E-03   0.0000000000E+00   0.0000000000E+00   0.0000000000E+00   0.5346147681E-01  -0.1532226611E+01   0.4078288290E+00  -0.2312191973E-01   0.5723040504E-01  -0.5698621939E-02
   0.7554682025E+00   0.2537348364E-01   0.4000218815E+00   0.5468202541E-02   0.2537348364E-01   0.2187546683E-04   0.0000000000E+00   0.0000000000E+00   0.0000000000E+00  -0.1828643487E+01  -0.3634681792E+01  -0.1305454693E+01   0.1430001631E-01   0.7177380287E-01  -0.4147517808E-02
   0.9880918171E+00  -0.1834707375E+00   0.4008694763E+00   0.6376555118E-02   0.2818590748E-01   0.8694702633E-03   0.0000000000E+00   0.0000000000E+00   0.0000000000E+00   0.3878677533E-01  -0.1283861240E+01   0.2000559090E+00  -0.8287654226E-02   0.3053603260E-01  -0.3655948714E-01
   0.1014239457E+01   0.2421874611E-01   0.4004955975E+00   0.7062576664E-02   0.2505020711E-01   0.4955914547E-03   0.0000000000E+00   0.0000000000E+00   0.0000000000E+00  -0.3318767567E+00  -0.1715329915E+01  -0.1103671030E+00  -0.1441554664E-01   0.3155508067E-01  -0.9428359243E-02
   0.1144089125E+01  -0.1811019801E+00   0.4009442657E+00   0.7305284595E-02   0.2768838194E-01   0.9442597151E-03   0.0000000000E+00   0.0000000000E+00   0.0000000000E+00  -0.9415076011E-01  -0.1353104875E+01  -0.2306554857E-01   0.6328428812E-01   0.2134484710E-02  -0.2161891248E-01
   0.1160710302E+01   0.2475349824E-01   0.4006125444E+00   0.7885301517E-02   0.2495823324E-01   0.6125384393E-03   0.0000000000E+00   0.0000000000E+00   0.0000000000E+00  -0.9188747344E-02  -0.1245786091E+01   0.1257631486E+00   0.6884863779E-02   0.6971266531E-02  -0.2758154111E-02
   0.1310785088E+01  -0.1782514597E+00   0.4009488405E+00   0.8280908479E-02   0.2735431527E-01   0.9488344681E-03   0.0000000000E+00   0.0000000000E+00   0.0000000000E+00  -0.5038710691E-02  -0.1190626863E+01   0.2873207502E-01   0.6081633434E-01  -0.3094515519E-02  -0.1572866319E-01
   0.1323595581E+01   0.2657317542E-01   0.4006298849E+00   0.8762890979E-02   0.2484406342E-01   0.6298789184E-03   0.0000000000E+00   0.0000000000E+00   0.0000000000E+00  -0.1120943732E+00  -0.1271607826E+01  -0.2131038192E-01  -0.4069892198E-02  -0.6512124628E-02  -0.2339576732E-02
   0.1482976666E+01  -0.1759816247E+00   0.4009093333E+00   0.9261356020E-02   0.2711089030E-01   0.9093272720E-03   0.0000000000E+00   0.0000000000E+00   0.0000000000E+00  -0.5137736586E-02  -0.1141259103E+01   0.3998406861E-02   0.5684355374E-01  -0.6359134537E-02  -0.1119635988E-01
   0.1493041973E+01   0.2789124412E-01   0.4006010763E+00   0.9653673166E-02   0.2475298112E-01   0.6010702825E-03   0.0000000000E+00   0.0000000000E+00   0.0000000000E+00  -0.6269203342E-01  -0.1171825990E+01  -0.3159764935E-02  -0.2393357607E-02  -0.8645287808E-02  -0.1889171642E-02
   0.1657966731E+01  -0.1743147863E+00   0.4008470501E+00   0.1023304148E-01   0.2691892866E-01   0.8470440915E-03   0.0000000000E+00   0.0000000000E+00   0.0000000000E+00   0.4914906391E-01  -0.1040037601E+01   0.3553756696E-01   0.4697106316E-01  -0.5566522556E-02  -0.8117165221E-02
   0.1664999893E+01   0.2857286180E-01   0.4005482297E+00   0.1054399284E-01   0.2469622780E-01   0.5482237050E-03   0.0000000000E+00   0.0000000000E+00   0.0000000000E+00  -0.2685489488E-01  -0.1093847384E+01   0.2553333857E-02  -0.2993848417E-02  -0.8170458060E-02  -0.1728687758E-02
   0.1834269943E+01  -0.1724331365E+00   0.4007735689E+00   0.1119441334E-01   0.2673055346E-01   0.7735628607E-03   0.0000000000E+00   0.0000000000E+00   0.0000000000E+00   0.2115774644E-02  -0.1038512465E+01  -0.4254830897E-01   0.2958189931E-01  -0.9290462067E-03  -0.5375790503E-02
   0.1836879411E+01   0.3141133494E-01   0.4004853679E+00   0.1142541055E-01   0.2463633594E-01   0.4853619235E-03   0.0000000000E+00   0.0000000000E+00   0.0000000000E+00  -0.6428456639E-01  -0.1084191128E+01  -0.7346431314E-01  -0.2951330994E-02  -0.2869896813E-02  -0.1136179638E-02
   0.2012148696E+01  -0.1721716928E+00   0.4007144005E+00   0.1214869613E-01   0.2651724618E-01   0.7143945364E-03   0.0000000000E+00   0.0000000000E+00   0.0000000000E+00   0.1935267097E+00  -0.7817986263E+00   0.9200869589E-01   0.1285035770E-01   0.5549227924E-02  -0.1430415879E-02
   0.2012318624E+01   0.3179921423E-01   0.4004376529E+00   0.1231862441E-01   0.2462659523E-01   0.4376468580E-03   0.0000000000E+00   0.0000000000E+00   0.0000000000E+00   0.1740008111E+00  -0.7774076454E+00   0.1017965453E+00  -0.3216329820E-02   0.3590693265E-02  -0.2755559094E-03
   0.9405410827E+00  -0.3941655536E+00   0.4013444990E+00   0.5019897741E-02   0.3133433237E-01   0.1344492986E-02   0.0000000000E+00   0.0000000000E+00   0.0000000000E+00   0.2870621768E+00  -0.9779115229E+00   0.3259167901E+00  -0.1113107027E+00   0.2226209713E-01  -0.3209828345E-01
   0.1113365162E+01  -0.3876347466E+00   0.4013655298E+00   0.6194582469E-02   0.3044170935E-01   0.1365523796E-02   0.0000000000E+00   0.0000000000E+00   0.0000000000E+00   0.1170851298E+00  -0.1185460686E+01   0.5906717661E-01   0.3021810668E-01   0.1327815576E-02  -0.1630190451E-01
   0.1289835748E+01  -0.3820667920E+00   0.4013310786E+00   0.7366237605E-02   0.2986406696E-01   0.1331072602E-02   0.0000000000E+00   0.0000000000E+00   0.0000000000E+00   0.1652671460E+00  -0.1054807836E+01   0.1055484043E+00   0.4576337149E-01  -0.8668076359E-03  -0.1023570880E-01
   0.1468402370E+01  -0.3782465880E+00   0.4012652918E+00   0.8495790385E-02   0.2946026896E-01   0.1265285820E-02   0.0000000000E+00   0.0000000000E+00   0.0000000000E+00   0.1123380254E+00  -0.1056843232E+01   0.4898412445E-01   0.6195939474E-01  -0.2759005192E-02  -0.6485919521E-02
   0.1648485720E+01  -0.3757783804E+00   0.4011824232E+00   0.9583290261E-02   0.2913537256E-01   0.1182417194E-02   0.0000000000E+00   0.0000000000E+00   0.0000000000E+00   0.1199324357E+00  -0.9966012642E+00   0.5227083961E-01   0.6106317779E-01  -0.1752695095E-02  -0.4126673018E-02
   0.1829655558E+01  -0.3740332325E+00   0.4010914293E+00   0.1063957823E-01   0.2881739547E-01   0.1091423293E-02   0.0000000000E+00   0.0000000000E+00   0.0000000000E+00   0.6639431689E-01  -0.1001178439E+01  -0.1884966613E-01   0.4366311319E-01   0.2107063444E-02  -0.2142809035E-02
   0.2011675042E+01  -0.3737097451E+00   0.4010102615E+00   0.1167504211E-01   0.2841847487E-01   0.1010255534E-02   0.0000000000E+00   0.0000000000E+00   0.0000000000E+00   0.2297957812E+00  -0.7808527504E+00   0.1013693162E+00   0.2414568606E-01   0.7438574883E-02   0.3356802899E-02
   0.8820232595E+00  -0.6078411787E+00   0.4017675100E+00   0.3906174468E-02   0.3451748229E-01   0.1767504050E-02   0.0000000000E+00   0.0000000000E+00   0.0000000000E+00   0.5880503735E-01  -0.1147376358E+01   0.6841469957E-01  -0.2029142779E+00   0.2744284396E-02  -0.3822767078E-02
   0.1078340357E+01  -0.5931065890E+00   0.4017326101E+00   0.5225727116E-02   0.3315720798E-01   0.1732604063E-02   0.0000000000E+00   0.0000000000E+00   0.0000000000E+00   0.2378397638E-01  -0.1234590699E+01  -0.3573044513E-01  -0.1049388177E-01   0.4362320192E-02  -0.2689172588E-02
   0.1266252502E+01  -0.5837907139E+00   0.4016724387E+00   0.6459702359E-02   0.3234321414E-01   0.1672432706E-02   0.0000000000E+00   0.0000000000E+00   0.0000000000E+00  -0.9828504858E-02  -0.1208825786E+01  -0.6757073414E-01   0.3109727837E-01   0.2328747972E-02  -0.8585754976E-03
   0.1451932829E+01  -0.5786324695E+00   0.4015985824E+00   0.7628598882E-02   0.3178656551E-01   0.1598576401E-02   0.0000000000E+00   0.0000000000E+00   0.0000000000E+00   0.1617393938E-01  -0.1143624414E+01  -0.4937205519E-01   0.6474765348E-01   0.2685697298E-02  -0.7853393486E-03
   0.1637607854E+01  -0.5758647244E+00   0.4015094833E+00   0.8753343558E-02   0.3134257361E-01   0.1509477331E-02   0.0000000000E+00   0.0000000000E+00   0.0000000000E+00   0.4550241575E-01  -0.1071127608E+01  -0.2733744553E-01   0.7449756382E-01   0.2829991163E-02  -0.1475461032E-03
   0.1823935738E+01  -0.5742879647E+00   0.4014085090E+00   0.9849777723E-02   0.3090892825E-01   0.1408502985E-02   0.0000000000E+00   0.0000000000E+00   0.0000000000E+00   0.3773696074E-01  -0.1038182606E+01  -0.5093333183E-01   0.5994002217E-01   0.4323751895E-02   0.1024065985E-02
   0.2010928415E+01  -0.5736999780E+00   0.4013015349E+00   0.1092841457E-01   0.3035828799E-01   0.1301528916E-02   0.0000000000E+00   0.0000000000E+00   0.0000000000E+00   0.1695097539E+00  -0.8650595003E+00   0.5098850777E-01   0.4160772398E-01   0.7061892146E-02   0.7035371558E-02
   0.1818619504E+01  -0.7728963900E+00   0.4017420201E+00   0.8879434001E-02   0.3299893896E-01   0.1742014053E-02   0.0000000000E+00   0.0000000000E+00   0.0000000000E+00   0.8140686308E-01  -0.9994948408E+00  -0.1948868374E-02   0.6007773028E-01   0.5702707575E-02   0.1907081483E-02
   0.2009984987E+01  -0.7724773054E+00   0.4016101753E+00   0.9984986612E-02   0.3234770259E-01   0.1610169313E-02   0.0000000000E+00   0.0000000000E+00   0.0000000000E+00   0.1040364239E+00  -0.9518313524E+00   0.4144136517E-02   0.4365448128E-01   0.6094357902E-02   0.7491304867E-02
   0.1814577728E+01  -0.9708628699E+00   0.4020873625E+00   0.7937937935E-02   0.3509533006E-01   0.2087356462E-02   0.0000000000E+00   0.0000000000E+00   0.0000000000E+00   0.8512368842E-01  -0.9923910888E+00   0.2306777780E-01   0.3595019148E-01   0.2470692289E-02   0.2881764980E-02
   0.2009039427E+01  -0.9705622996E+00   0.4019353736E+00   0.9039426646E-02   0.3438930041E-01   0.1935367601E-02   0.0000000000E+00   0.0000000000E+00   0.0000000000E+00   0.2811980974E-01  -0.1038892619E+01  -0.4009135312E-01   0.2617569851E-01   0.1179103947E-02   0.7395443675E-02
   0.1811752578E+01  -0.1168465020E+01   0.4024517881E+00   0.7107277636E-02   0.3719711016E-01   0.2451782075E-02   0.0000000000E+00   0.0000000000E+00   0.0000000000E+00   0.6689297936E-01  -0.1001442385E+01   0.3289276579E-01   0.1333851428E-01   0.6129656461E-03   0.1799582294E-02
   0.2008184873E+01  -0.1168263416E+01   0.4022850929E+00   0.8184873095E-02   0.3647412417E-01   0.2285086889E-02   0.0000000000E+00   0.0000000000E+00   0.0000000000E+00  -0.2358529938E-01  -0.1092243337E+01  -0.5616077195E-01   0.9060987674E-02  -0.1684038205E-02   0.5073425251E-02
   0.1809790925E+01  -0.1365879744E+01   0.4028419043E+00   0.6379084797E-02   0.3930118587E-01   0.2841898347E-02   0.0000000000E+00   0.0000000000E+00   0.0000000000E+00   0.4282217835E-01  -0.1014555356E+01   0.3440795021E-01  -0.2692982611E-02  -0.7519356441E-06  -0.2418385997E-04
   0.2007428121E+01  -0.1365763913E+01   0.4026661001E+00   0.7428121266E-02   0.3858731722E-01   0.2666094080E-02   0.0000000000E+00   0.0000000000E+00   0.0000000000E+00  -0.5166258216E-01  -0.1116061662E+01  -0.5407112708E-01  -0.2208801154E-02  -0.2567562778E-02   0.1931693376E-02
   0.1808361600E+01  -0.1563207017E+01   0.4032589574E+00   0.5731289974E-02   0.4140342264E-01   0.3258951422E-02   0.0000000000E+00   0.0000000000E+00   0.0000000000E+00   0.1883348808E-01  -0.1027243274E+01   0.3067580475E-01  -0.1301774584E-01   0.3406418105E-04  -0.1856666364E-02
   0.2006753537E+01  -0.1563169787E+01   0.4030788883E+00   0.6753536516E-02   0.4071300257E-01   0.3078882350E-02   0.0000000000E+00   0.0000000000E+00   0.0000000000E+00  -0.6314780668E-01  -0.1119330999E+01  -0.4346342912E-01  -0.8393818316E-02  -0.2264210578E-02  -0.1046069650E-02
   0.1807234037E+01  -0.1760499962E+01   0.4037012978E+00   0.5143156517E-02   0.4349933828E-01   0.3701291815E-02   0.0000000000E+00   0.0000000000E+00   0.0000000000E+00  -0.3422550084E-02  -0.1037986313E+01   0.2377875979E-01  -0.1900935236E-01   0.4215880113E-03  -0.3386391559E-02
   0.2006141608E+01  -0.1760539594E+01   0.4035205277E+00   0.6141608014E-02   0.4283719580E-01   0.3520521736E-02   0.0000000000E+00   0.0000000000E+00   0.0000000000E+00  -0.6513371103E-01  -0.1110227032E+01  -0.3040887312E-01  -0.1109571573E-01  -0.1301316793E-02  -0.3439528449E-02
   0.1806269433E+01  -0.1957785395E+01   0.4041662738E+00   0.4597093466E-02   0.4558489511E-01   0.4166267781E-02   0.0000000000E+00   0.0000000000E+00   0.0000000000E+00  -0.2253568641E-01  -0.1045427304E+01   0.1631733632E-01  -0.2192668111E-01   0.9066460212E-03  -0.4514808457E-02
   0.2005574431E+01  -0.1957904324E+01   0.4039869635E+00   0.5574430761E-02   0.4494930578E-01   0.3986957451E-02   0.0000000000E+00   0.0000000000E+00   0.0000000000E+00  -0.6221071210E-01  -0.1094352546E+01  -0.1753573795E-01  -0.1180358972E-01  -0.1197861318E-03  -0.5125583890E-02
   0.1805392653E+01  -0.2155074649E+01   0.4046505593E+00   0.4077943471E-02   0.4765720081E-01   0.4650553333E-02   0.0000000000E+00   0.0000000000E+00   0.0000000000E+00  -0.3843831487E-01  -0.1049610069E+01   0.9833308768E-02  -0.2254460030E-01   0.1357914900E-02  -0.5193351573E-02
   0.2005035915E+01  -0.2155278581E+01   0.4044736918E+00   0.5035914615E-02   0.4704270876E-01   0.4473685800E-02   0.0000000000E+00   0.0000000000E+00   0.0000000000E+00  -0.5809928353E-01  -0.1076413047E+01  -0.6374286952E-02  -0.1129817390E-01   0.1025739050E-02  -0.6102984239E-02
   0.1804570870E+01  -0.2352368938E+01   0.4051506233E+00   0.3570750099E-02   0.4971493244E-01   0.5150617348E-02   0.0000000000E+00   0.0000000000E+00   0.0000000000E+00  -0.5253704496E-01  -0.1052267687E+01   0.4165841817E-02  -0.2088779789E-01   0.1651162143E-02  -0.5448394503E-02
   0.2004510368E+01  -0.2352663659E+01   0.4049762546E+00   0.4510368453E-02   0.4911480143E-01   0.4976248588E-02   0.0000000000E+00   0.0000000000E+00   0.0000000000E+00  -0.5622771777E-01  -0.1060933203E+01   0.1516690977E-02  -0.9642897404E-02   0.1955232570E-02  -0.6429201785E-02
   0.1803802326E+01  -0.2549662114E+01   0.4056624191E+00   0.3060416021E-02   0.5175852566E-01   0.5662413051E-02   0.0000000000E+00   0.0000000000E+00   0.0000000000E+00  -0.6221531084E-01  -0.1051249170E+01   0.2907836712E-02  -0.1774092192E-01   0.1558308124E-02  -0.4983010826E-02
   0.2003982111E+01  -0.2550051383E+01   0.4054899600E+00   0.3982111025E-02   0.5116683711E-01   0.5489954047E-02   0.0000000000E+00   0.0000000000E+00   0.0000000000E+00  -0.5554334469E-01  -0.1047920253E+01   0.8788483706E-02  -0.6886114536E-02   0.2402551810E-02  -0.5985577565E-02
   0.1803099743E+01  -0.2746942415E+01   0.4061799767E+00   0.2530922835E-02   0.5379019463E-01   0.6179970675E-02   0.0000000000E+00   0.0000000000E+00   0.0000000000E+00  -0.7605851289E-01  -0.1054738592E+01   0.1465419856E-03  -0.9729500900E-02   0.1047481769E-03  -0.3672169529E-02
   0.2003432026E+01  -0.2747425965E+01   0.4060089706E+00   0.3432026089E-02   0.5320341454E-01   0.6008964609E-02   0.0000000000E+00   0.0000000000E+00   0.0000000000E+00  -0.6619240634E-01  -0.1047566037E+01   0.8223185369E-02   0.3252516719E-03   0.1573785201E-02  -0.4599632986E-02
   0.1802407583E+01  -0.2944185650E+01   0.4066990915E+00   0.1954753379E-02   0.5581434954E-01   0.6699085501E-02   0.0000000000E+00   0.0000000000E+00   0.0000000000E+00  -0.9336387600E-01  -0.1063508402E+01  -0.3837336219E-02  -0.2795471717E-02  -0.2222092603E-02  -0.1923174573E-02
   0.2002835527E+01  -0.2944768428E+01   0.4065282358E+00   0.2835526607E-02   0.5523157191E-01   0.6528229805E-02   0.0000000000E+00   0.0000000000E+00   0.0000000000E+00  -0.7898564856E-01  -0.1052339536E+01   0.7372607090E-02   0.6035771005E-02  -0.8815827100E-04  -0.2793306908E-02
   0.1627821503E+01  -0.7744633205E+00   0.4018543485E+00   0.7758433306E-02   0.3352961447E-01   0.1854342549E-02   0.0000000000E+00   0.0000000000E+00   0.0000000000E+00   0.5929756872E-01  -0.1053529895E+01  -0.1128811824E-01   0.7290659494E-01   0.6795384670E-02   0.6158973999E-03
   0.1620565287E+01  -0.9723520813E+00   0.4022088944E+00   0.6826746722E-02   0.3570026867E-01   0.2208888411E-02   0.0000000000E+00   0.0000000000E+00   0.0000000000E+00   0.4089265709E-01  -0.1059002287E+01  -0.9559637213E-02   0.4221661445E-01   0.5286469103E-02   0.1832254091E-02
   0.1615638632E+01  -0.1169805473E+01   0.4025818018E+00   0.6025091762E-02   0.3785376687E-01   0.2581795800E-02   0.0000000000E+00   0.0000000000E+00   0.0000000000E+00   0.1527954617E-01  -0.1066697744E+01  -0.8726888323E-02   0.1474273497E-01   0.4467326551E-02   0.7218645602E-03
   0.1612359674E+01  -0.1367025688E+01   0.4029796630E+00   0.5329164204E-02   0.3998916230E-01   0.2979657025E-02   0.0000000000E+00   0.0000000000E+00   0.0000000000E+00  -0.4737322965E-02  -0.1068470262E+01  -0.5262860699E-02  -0.5672652389E-02   0.4163840308E-02  -0.9261379133E-03
   0.1610095044E+01  -0.1564137346E+01   0.4034033489E+00   0.4710693956E-02   0.4210602358E-01   0.3403342867E-02   0.0000000000E+00   0.0000000000E+00   0.0000000000E+00  -0.1816437398E-01  -0.1065018674E+01  -0.5312472336E-03  -0.2001427377E-01   0.3955765421E-02  -0.2480162571E-02
   0.1608401363E+01  -0.1761208609E+01   0.4038510067E+00   0.4148192878E-02   0.4420416069E-01   0.3851000701E-02   0.0000000000E+00   0.0000000000E+00   0.0000000000E+00  -0.2846466831E-01  -0.1059804607E+01   0.2994673702E-02  -0.2937453345E-01   0.3757857822E-02  -0.3707375356E-02
   0.1607010976E+01  -0.1958272326E+01   0.4043202626E+00   0.3624575950E-02   0.4628361425E-01   0.4320256562E-02   0.0000000000E+00   0.0000000000E+00   0.0000000000E+00  -0.3621052384E-01  -0.1053280457E+01   0.6011938746E-02  -0.3464129276E-01   0.3481989622E-02  -0.4592406127E-02
   0.1605782535E+01  -0.2155342054E+01   0.4048081586E+00   0.3125814513E-02   0.4834489623E-01   0.4808152625E-02   0.0000000000E+00   0.0000000000E+00   0.0000000000E+00  -0.4280705030E-01  -0.1046654761E+01   0.8554672131E-02  -0.3652494117E-01   0.3119920724E-02  -0.5103402759E-02
   0.1604662477E+01  -0.2352419506E+01   0.4053115548E+00   0.2637917051E-02   0.5038916388E-01   0.5311548815E-02   0.0000000000E+00   0.0000000000E+00   0.0000000000E+00  -0.4999145676E-01  -0.1041611503E+01   0.1006258145E-01  -0.3497907377E-01   0.2589899926E-02  -0.5264939855E-02
   0.1603659253E+01  -0.2549499792E+01   0.4058268127E+00   0.2146343406E-02   0.5241842752E-01   0.5826806664E-02   0.0000000000E+00   0.0000000000E+00   0.0000000000E+00  -0.5873752987E-01  -0.1039352967E+01   0.1028981497E-01  -0.3135210745E-01   0.1670454639E-02  -0.4821977624E-02
   0.1602811948E+01  -0.2746562078E+01   0.4063484332E+00   0.1638307600E-02   0.5443565182E-01   0.6348427206E-02   0.0000000000E+00   0.0000000000E+00   0.0000000000E+00  -0.6730562688E-01  -0.1037540908E+01   0.1331782924E-01  -0.2277199445E-01  -0.8145680213E-03  -0.3472467741E-02
   0.1602030892E+01  -0.2943554791E+01   0.4068714251E+00   0.1086852237E-02   0.5644520886E-01   0.6871419084E-02   0.0000000000E+00   0.0000000000E+00   0.0000000000E+00  -0.1025245300E+00  -0.1062247097E+01  -0.4458810295E-02  -0.1481294350E-01  -0.4122187420E-02  -0.1540887757E-02
   0.1437360017E+01  -0.7777141153E+00   0.4019500623E+00   0.6612387396E-02   0.3407742374E-01   0.1950056346E-02   0.0000000000E+00   0.0000000000E+00   0.0000000000E+00   0.4730847412E-01  -0.1097546202E+01  -0.1236481549E-01   0.6003778093E-01   0.7831819085E-02  -0.1607442585E-04
   0.1426752886E+01  -0.9758062960E+00   0.4023106953E+00   0.5698645623E-02   0.3633004404E-01   0.2310689281E-02   0.0000000000E+00   0.0000000000E+00   0.0000000000E+00   0.3640127094E-01  -0.1086688599E+01  -0.6810681873E-03   0.2440778551E-01   0.6397603676E-02   0.1476738850E-02
   0.1419664119E+01  -0.1173171058E+01   0.4026902215E+00   0.4934168523E-02   0.3854345189E-01   0.2690215549E-02   0.0000000000E+00   0.0000000000E+00   0.0000000000E+00   0.1337451405E-01  -0.1083672094E+01   0.3529941532E-02  -0.3092721252E-02   0.5662675939E-02   0.3603844538E-03
   0.1415032459E+01  -0.1370101711E+01   0.4030951547E+00   0.4277059241E-02   0.4071829854E-01   0.3095148717E-02   0.0000000000E+00   0.0000000000E+00   0.0000000000E+00  -0.6604742527E-02  -0.1078218143E+01   0.6334289315E-02  -0.2210616004E-01   0.5297221400E-02  -0.1182483978E-02
   0.1411906920E+01  -0.1566816944E+01   0.4035259666E+00   0.3692709954E-02   0.4285703553E-01   0.3525960642E-02   0.0000000000E+00   0.0000000000E+00   0.0000000000E+00  -0.1989034540E-01  -0.1068606527E+01   0.9575241433E-02  -0.3474243603E-01   0.4983401913E-02  -0.2558445228E-02
   0.1409628660E+01  -0.1763444936E+01   0.4039803050E+00   0.3159549890E-02   0.4496272403E-01   0.3980299023E-02   0.0000000000E+00   0.0000000000E+00   0.0000000000E+00  -0.3084920854E-01  -0.1059112219E+01   0.1077333347E-01  -0.4255158885E-01   0.4655819068E-02  -0.3588475755E-02
   0.1407799778E+01  -0.1960048878E+01   0.4044558985E+00   0.2661167687E-02   0.4703859178E-01   0.4455892497E-02   0.0000000000E+00   0.0000000000E+00   0.0000000000E+00  -0.3898965665E-01  -0.1049191465E+01   0.1195051264E-01  -0.4635082267E-01   0.4225513337E-02  -0.4330668473E-02
   0.1406212876E+01  -0.2156656075E+01   0.4049499257E+00   0.2184936171E-02   0.4908819522E-01   0.4949919663E-02   0.0000000000E+00   0.0000000000E+00   0.0000000000E+00  -0.4635361151E-01  -0.1040647439E+01   0.1271339158E-01  -0.4687659535E-01   0.3681009868E-02  -0.4772236934E-02
   0.1404794589E+01  -0.2353274459E+01   0.4054595534E+00   0.1718178825E-02   0.5111540079E-01   0.5459547363E-02   0.0000000000E+00   0.0000000000E+00   0.0000000000E+00  -0.5278891761E-01  -0.1033069039E+01   0.1456535232E-01  -0.4403662708E-01   0.2895125008E-02  -0.4902849071E-02
   0.1403561166E+01  -0.2549893463E+01   0.4059815489E+00   0.1247095578E-02   0.5312434730E-01   0.5981542903E-02   0.0000000000E+00   0.0000000000E+00   0.0000000000E+00  -0.6696047330E-01  -0.1035130501E+01   0.9613979010E-02  -0.3903186802E-01   0.1595079973E-02  -0.4695164070E-02
   0.1402574683E+01  -0.2746465368E+01   0.4065114859E+00   0.7614132511E-03   0.5511935213E-01   0.6511479888E-02   0.0000000000E+00   0.0000000000E+00   0.0000000000E+00  -0.6214148727E-01  -0.1019689344E+01   0.2575370488E-01  -0.3049324707E-01  -0.1556953787E-02  -0.3252590301E-02
   0.1401715249E+01  -0.2942894817E+01   0.4070408518E+00   0.2432786480E-03   0.5710518266E-01   0.7040845808E-02   0.0000000000E+00   0.0000000000E+00   0.0000000000E+00  -0.1300138311E+00  -0.1074011376E+01  -0.1902460029E-01  -0.2275591032E-01  -0.5991144669E-02  -0.8644182941E-03
   0.1246340210E+01  -0.7844554123E+00   0.4020294047E+00   0.5430400382E-02   0.3476310369E-01   0.2029398748E-02   0.0000000000E+00   0.0000000000E+00   0.0000000000E+00   0.1034491506E-01  -0.1161634747E+01  -0.3403814206E-01   0.2591170390E-01   0.8574801053E-02  -0.2154561769E-04
   0.1232397062E+01  -0.9832997696E+00   0.4023980966E+00   0.4546862358E-02   0.3710815043E-01   0.2398090551E-02   0.0000000000E+00   0.0000000000E+00   0.0000000000E+00   0.1049649160E-01  -0.1130795495E+01  -0.9058320624E-02  -0.1288483527E-01   0.7147112658E-02   0.1442643973E-02
   0.1223316249E+01  -0.1180631999E+01   0.4027861912E+00   0.3831558762E-02   0.3938066080E-01   0.2786185151E-02   0.0000000000E+00   0.0000000000E+00   0.0000000000E+00  -0.1299824822E-01  -0.1119618984E+01  -0.5191910272E-02  -0.3849141330E-01   0.6160246062E-02   0.4337966004E-03
   0.1217483977E+01  -0.1377032614E+01   0.4032000593E+00   0.3222567375E-02   0.4158606595E-01   0.3200053287E-02   0.0000000000E+00   0.0000000000E+00   0.0000000000E+00  -0.2908222906E-01  -0.1102253264E+01  -0.1631441615E-03  -0.5357486808E-01   0.5385092131E-02  -0.1046977085E-02
   0.1213596182E+01  -0.1572965350E+01   0.4036395084E+00   0.2678951500E-02   0.4373244006E-01   0.3639502370E-02   0.0000000000E+00   0.0000000000E+00   0.0000000000E+00  -0.3769166582E-01  -0.1081264131E+01   0.5066459952E-02  -0.6150184555E-01   0.4659169461E-02  -0.2218184509E-02
   0.1210790321E+01  -0.1768701000E+01   0.4041015612E+00   0.2180260574E-02   0.4582806042E-01   0.4101555220E-02   0.0000000000E+00   0.0000000000E+00   0.0000000000E+00  -0.4566410909E-01  -0.1063268667E+01   0.6791096623E-02  -0.6436326376E-01   0.4017988640E-02  -0.3021936738E-02
   0.1208556145E+01  -0.1964371248E+01   0.4045842572E+00   0.1710985493E-02   0.4788060204E-01   0.4584251235E-02   0.0000000000E+00   0.0000000000E+00   0.0000000000E+00  -0.5102195946E-01  -0.1046391723E+01   0.8745399466E-02  -0.6300992666E-01   0.3384931583E-02  -0.3593558868E-02
   0.1206634709E+01  -0.2160033562E+01   0.4050851424E+00   0.1260229161E-02   0.4989757825E-01   0.5085136371E-02   0.0000000000E+00   0.0000000000E+00   0.0000000000E+00  -0.5661592682E-01  -0.1033261753E+01   0.9868043613E-02  -0.5848547678E-01   0.2700435278E-02  -0.3956741655E-02
   0.1204939160E+01  -0.2355703677E+01   0.4056019908E+00   0.8170896975E-03   0.5188623277E-01   0.5601984830E-02   0.0000000000E+00   0.0000000000E+00   0.0000000000E+00  -0.6096048461E-01  -0.1021867391E+01   0.1317557633E-01  -0.5096782350E-01   0.1685687458E-02  -0.4061537334E-02
   0.1203494755E+01  -0.2551358950E+01   0.4061320324E+00   0.3691547745E-03   0.5385326017E-01   0.6132026441E-02   0.0000000000E+00   0.0000000000E+00   0.0000000000E+00  -0.8294346076E-01  -0.1030645718E+01   0.8843654905E-03  -0.4073672428E-01  -0.8403130649E-04  -0.4154499827E-02
   0.1202378812E+01  -0.2746920167E+01   0.4066725637E+00  -0.9327805870E-04   0.5580467344E-01   0.6672557672E-02   0.0000000000E+00   0.0000000000E+00   0.0000000000E+00  -0.6854842963E-01  -0.1005683478E+01   0.2626555664E-01  -0.2925792261E-01  -0.3950012016E-02  -0.2943250596E-02
   0.1201464494E+01  -0.2942254137E+01   0.4072124442E+00  -0.5689056540E-03   0.5774586287E-01   0.7212438238E-02   0.0000000000E+00   0.0000000000E+00   0.0000000000E+00  -0.1732946334E+00  -0.1095008955E+01  -0.5170949593E-01  -0.1917750734E-01  -0.1032048912E-01  -0.4170672136E-03
   0.1052554633E+01  -0.7973410414E+00   0.4020946571E+00   0.4202753182E-02   0.3575176764E-01   0.2094651141E-02   0.0000000000E+00   0.0000000000E+00   0.0000000000E+00   0.2228944977E-01  -0.1169905789E+01   0.1754008822E-02  -0.2663584802E-01   0.1242522882E-01   0.3814542549E-03
   0.1035908584E+01  -0.9975399009E+00   0.4024786645E+00   0.3367783812E-02   0.3819760906E-01   0.2478658494E-02   0.0000000000E+00   0.0000000000E+00   0.0000000000E+00   0.3021595473E-01  -0.1118905636E+01   0.3349951617E-01  -0.7228168573E-01   0.8453940813E-02   0.1146669232E-02
   0.1025535642E+01  -0.1194617819E+01   0.4028816427E+00   0.2718391669E-02   0.4051249059E-01   0.2881636729E-02   0.0000000000E+00   0.0000000000E+00   0.0000000000E+00  -0.1534881255E-01  -0.1118266904E+01   0.1146145722E-01  -0.9584290910E-01   0.5712800171E-02   0.1004004906E-02
   0.1019006632E+01  -0.1389915002E+01   0.4033093908E+00   0.2168911937E-02   0.4271541846E-01   0.3309384797E-02   0.0000000000E+00   0.0000000000E+00   0.0000000000E+00  -0.3205689509E-01  -0.1091410985E+01   0.1013279893E-01  -0.1034418860E+00   0.3363838693E-02  -0.2347931222E-03
   0.1014674844E+01  -0.1584366817E+01   0.4037603530E+00   0.1673644031E-02   0.4482661303E-01   0.3760347000E-02   0.0000000000E+00   0.0000000000E+00   0.0000000000E+00  -0.4192219006E-01  -0.1063547236E+01   0.8502347332E-02  -0.1017792471E+00   0.1725566333E-02  -0.9151448370E-03
   0.1011538517E+01  -0.1778476667E+01   0.4042310801E+00   0.1215227079E-02   0.4686432287E-01   0.4231074139E-02   0.0000000000E+00   0.0000000000E+00   0.0000000000E+00  -0.4753363462E-01  -0.1037102126E+01   0.8389949090E-02  -0.9427842074E-01   0.7251911572E-03  -0.1306215803E-02
   0.1009029695E+01  -0.1972472144E+01   0.4047203127E+00   0.7794545044E-03   0.4884390558E-01   0.4720306663E-02   0.0000000000E+00   0.0000000000E+00   0.0000000000E+00  -0.4993983120E-01  -0.1013238311E+01   0.1067507488E-01  -0.8257986901E-01   0.2087710754E-03  -0.1571810440E-02
   0.1006870940E+01  -0.2166443353E+01   0.4052265750E+00   0.3574601684E-03   0.5077933685E-01   0.5226568950E-02   0.0000000000E+00   0.0000000000E+00   0.0000000000E+00  -0.5207893806E-01  -0.9946548891E+00   0.1394659237E-01  -0.6842023497E-01  -0.1820672697E-05  -0.1797078212E-02
   0.1004976085E+01  -0.2360412604E+01   0.4057489675E+00  -0.5931490783E-04   0.5268286567E-01   0.5748961465E-02   0.0000000000E+00   0.0000000000E+00   0.0000000000E+00  -0.4947654654E-01  -0.9758053980E+00   0.2411035818E-01  -0.5301530795E-01  -0.2422215954E-03  -0.1975663853E-02
   0.1003378170E+01  -0.2554348409E+01   0.4062858717E+00  -0.4807502419E-03   0.5456453127E-01   0.6285865664E-02   0.0000000000E+00   0.0000000000E+00   0.0000000000E+00  -0.6559454784E-01  -0.9786033929E+00   0.1912687589E-01  -0.3580512824E-01  -0.1190294901E-02  -0.2376365855E-02
   0.1002158703E+01  -0.2748160827E+01   0.4068368086E+00  -0.9182068177E-03   0.5643178297E-01   0.6836802578E-02   0.0000000000E+00   0.0000000000E+00   0.0000000000E+00  -0.3687372777E-01  -0.9396899834E+00   0.5992193150E-01  -0.2168501160E-01  -0.4438378725E-02  -0.2228011652E-02
   0.1001228691E+01  -0.2941710132E+01   0.4073939939E+00  -0.1348728625E-02   0.5828986765E-01   0.7393987875E-02   0.0000000000E+00   0.0000000000E+00   0.0000000000E+00  -0.1538992347E+00  -0.1043361847E+01  -0.3360362752E-01  -0.1149656919E-01  -0.1289352485E-01  -0.5397863508E-03
   0.8520901095E+00  -0.8188257447E+00   0.4021552610E+00   0.2937127467E-02   0.3735587734E-01   0.2155255024E-02   0.0000000000E+00   0.0000000000E+00   0.0000000000E+00  -0.2261205600E+00  -0.1385701980E+01  -0.1945437621E+00  -0.1943959151E+00  -0.4662666097E-03   0.1402415904E-02
   0.8350419256E+00  -0.1020255197E+01   0.4025795602E+00   0.2172395576E-02   0.3985644338E-01   0.2579554156E-02   0.0000000000E+00   0.0000000000E+00   0.0000000000E+00  -0.9257090020E-01  -0.1209001295E+01  -0.6724773650E-01  -0.2054641261E+00  -0.6163023946E-02   0.5176227997E-03
   0.8249197031E+00  -0.1216102083E+01   0.4030066206E+00   0.1607778135E-02   0.4212883715E-01   0.3006614584E-02   0.0000000000E+00   0.0000000000E+00   0.0000000000E+00  -0.1214424086E+00  -0.1184884827E+01  -0.8883417254E-01  -0.1990029178E+00  -0.7986436938E-02   0.2440423338E-02
   0.8186287993E+00  -0.1409301256E+01   0.4034519590E+00   0.1127314320E-02   0.4423239430E-01   0.3451952971E-02   0.0000000000E+00   0.0000000000E+00   0.0000000000E+00  -0.7249404501E-01  -0.1083331163E+01  -0.3634939836E-01  -0.1763928267E+00  -0.7999303319E-02   0.1484614381E-02
   0.8144250157E+00  -0.1601370101E+01   0.4039127955E+00   0.6866696753E-03   0.4621194934E-01   0.3912789470E-02   0.0000000000E+00   0.0000000000E+00   0.0000000000E+00  -0.5271494265E-01  -0.1019839976E+01  -0.1546381833E-01  -0.1510699004E+00  -0.7339063267E-02   0.1912907452E-02
   0.8113257122E+00  -0.1793020897E+01   0.4043885786E+00   0.2731511826E-03   0.4810077329E-01   0.4388572634E-02   0.0000000000E+00   0.0000000000E+00   0.0000000000E+00  -0.4096289579E-01  -0.9723273567E+00  -0.2089942520E-02  -0.1243410230E+00  -0.6696464113E-02   0.2198115488E-02
   0.8088032663E+00  -0.1984544269E+01   0.4048801219E+00  -0.1253427166E-03   0.4992295057E-01   0.4880115869E-02   0.0000000000E+00   0.0000000000E+00   0.0000000000E+00  -0.4645743715E-01  -0.9495800647E+00  -0.4374034260E-02  -0.9594567594E-01  -0.6518336377E-02   0.2440232915E-02
   0.8066097936E+00  -0.2176037635E+01   0.4053881095E+00  -0.5158344306E-03   0.5169740488E-01   0.5388103494E-02   0.0000000000E+00   0.0000000000E+00   0.0000000000E+00  -0.6057809052E-01  -0.9426302334E+00  -0.1357595494E-01  -0.6588127163E-01  -0.7099776661E-02   0.2517777664E-02
   0.8046752847E+00  -0.2367518995E+01   0.4059126559E+00  -0.9037813159E-03   0.5344023527E-01   0.5912649933E-02   0.0000000000E+00   0.0000000000E+00   0.0000000000E+00  -0.9058225105E-01  -0.9571845794E+00  -0.3509594640E-01  -0.3361552274E-01  -0.8795934035E-02   0.2288059784E-02
   0.8030372366E+00  -0.2558957455E+01   0.4064532599E+00  -0.1295437371E-02   0.5516493466E-01   0.6453253944E-02   0.0000000000E+00   0.0000000000E+00   0.0000000000E+00  -0.1354019460E+00  -0.9901504552E+00  -0.6616005829E-01   0.3861519980E-02  -0.1207022170E-01   0.1872609307E-02
   0.8017721379E+00  -0.2750283658E+01   0.4070108369E+00  -0.1703600091E-02   0.5688172164E-01   0.7010830902E-02   0.0000000000E+00   0.0000000000E+00   0.0000000000E+00  -0.1808220207E+00  -0.1026079460E+01  -0.9381285613E-01   0.4172859314E-01  -0.1721016764E-01  -0.5173019945E-03
   0.8008666776E+00  -0.2941403543E+01   0.4075928172E+00  -0.2100334377E-02   0.5859645705E-01   0.7592811166E-02   0.0000000000E+00   0.0000000000E+00   0.0000000000E+00  -0.2705420100E+00  -0.1110692976E+01  -0.1723266876E+00   0.7796779183E-01  -0.2790112238E-01  -0.2019379374E-02
   0.6397327463E+00  -0.8514326205E+00   0.4023740015E+00   0.1671640289E-02   0.4020315551E-01   0.2373995465E-02   0.0000000000E+00   0.0000000000E+00   0.0000000000E+00  -0.1982686649E+00  -0.1244136297E+01  -0.2255506988E+00  -0.2829999956E+00  -0.3453446886E-01  -0.1268682240E-02
   0.6278561837E+00  -0.1050695562E+01   0.4028048268E+00   0.9926447322E-03   0.4235551765E-01   0.2804820846E-02   0.0000000000E+00   0.0000000000E+00   0.0000000000E+00   0.1352562333E+00  -0.8671081744E+00   0.9942439110E-01  -0.2590300224E+00  -0.2347766013E-01  -0.5873585905E-03
   0.6206113199E+00  -0.1242693800E+01   0.4032280255E+00   0.5250078709E-03   0.4428611026E-01   0.3228019484E-02   0.0000000000E+00   0.0000000000E+00   0.0000000000E+00   0.1137654327E+00  -0.8414931663E+00   0.8428220203E-01  -0.2291483565E+00  -0.1869236097E-01   0.2679544225E-02
   0.6160304147E+00  -0.1432308953E+01   0.4036588557E+00   0.1184536938E-03   0.4607971742E-01   0.3658849674E-02   0.0000000000E+00   0.0000000000E+00   0.0000000000E+00   0.1125403190E+00  -0.7974772584E+00   0.9421039161E-01  -0.1897494298E+00  -0.1357169088E-01   0.3703509711E-02
   0.6128178242E+00  -0.1621116753E+01   0.4041044749E+00  -0.2640477899E-03   0.4778421703E-01   0.4104468869E-02   0.0000000000E+00   0.0000000000E+00   0.0000000000E+00   0.8412696862E-01  -0.7903131512E+00   0.7454853637E-01  -0.1557405413E+00  -0.9740236748E-02   0.4542860347E-02
   0.6102619642E+00  -0.1809750668E+01   0.4045686134E+00  -0.6309277832E-03   0.4942597219E-01   0.4568607409E-02   0.0000000000E+00   0.0000000000E+00   0.0000000000E+00   0.6789912980E-01  -0.7770080781E+00   0.6504679420E-01  -0.1245076933E+00  -0.6771171678E-02   0.5074296429E-02
   0.6080310617E+00  -0.1998385579E+01   0.4050537470E+00  -0.9900062817E-03   0.5101666073E-01   0.5053740989E-02   0.0000000000E+00   0.0000000000E+00   0.0000000000E+00   0.5284381505E-01  -0.7656573347E+00   0.5622894221E-01  -0.9514117370E-01  -0.4416595623E-02   0.5179925614E-02
   0.6059794998E+00  -0.2187035855E+01   0.4055635289E+00  -0.1347782223E-02   0.5256241500E-01   0.5563522872E-02   0.0000000000E+00   0.0000000000E+00   0.0000000000E+00   0.5376652193E-01  -0.7412364838E+00   0.6086266581E-01  -0.6625527457E-01  -0.2990802997E-02   0.4969953859E-02
   0.6040913428E+00  -0.2375698607E+01   0.4060989495E+00  -0.1705113239E-02   0.5406566316E-01   0.6098943488E-02   0.0000000000E+00   0.0000000000E+00   0.0000000000E+00   0.5560775464E-01  -0.7168876570E+00   0.6632228851E-01  -0.3687678428E-01  -0.2731768385E-02   0.4347063745E-02
   0.6024287289E+00  -0.2564357629E+01   0.4066597501E+00  -0.2064710129E-02   0.5552829129E-01   0.6659744100E-02   0.0000000000E+00   0.0000000000E+00   0.0000000000E+00   0.7316820281E-01  -0.6768887394E+00   0.9008991880E-01  -0.4096679748E-02  -0.4589345619E-02   0.4619623019E-02
   0.6010906296E+00  -0.2752991627E+01   0.4072410190E+00  -0.2435605448E-02   0.5695515291E-01   0.7241013047E-02   0.0000000000E+00   0.0000000000E+00   0.0000000000E+00   0.5836806922E-01  -0.6694445320E+00   0.8970830463E-01   0.3420695796E-01  -0.1052539090E-01   0.2236297598E-02
   0.6001856597E+00  -0.2941639906E+01   0.4078590705E+00  -0.2821537316E-02   0.5836009443E-01   0.7859064515E-02   0.0000000000E+00   0.0000000000E+00   0.0000000000E+00   0.4890214196E-01  -0.6763350851E+00   0.7393309846E-01   0.7510841921E-01  -0.2186623315E-01   0.4363433075E-03
   0.3992836471E+00  -0.2755932042E+01   0.4073295416E+00  -0.3114163916E-02   0.5743818780E-01   0.7329535580E-02   0.0000000000E+00   0.0000000000E+00   0.0000000000E+00   0.1227151844E+00  -0.5467228469E+00   0.1447630985E+00  -0.3557764392E-01   0.2079000629E-02   0.3239766149E-01
   0.3990020079E+00  -0.2941305194E+01   0.4079720423E+00  -0.3494211113E-02   0.5869480574E-01   0.7972036309E-02   0.0000000000E+00   0.0000000000E+00   0.0000000000E+00   0.2748463343E+00  -0.3857723191E+00   0.2941903601E+00  -0.1617131801E-01  -0.2096853223E-02   0.3513701885E-01
   0.1934976093E+00  -0.2756532995E+01   0.4073593483E+00  -0.3771144718E-02   0.5816236512E-01   0.7359342268E-02   0.0000000000E+00   0.0000000000E+00   0.0000000000E+00   0.2462212211E+00  -0.4179951869E+00   0.2726942619E+00  -0.9766946585E-01   0.1141996132E-01   0.3653193164E-01
   0.1942841365E+00  -0.2940599109E+01   0.4079871474E+00  -0.4121904505E-02   0.5940089138E-01   0.7987141388E-02   0.0000000000E+00   0.0000000000E+00   0.0000000000E+00   0.2848365506E+00  -0.3590281198E+00   0.3352601852E+00  -0.1053135080E+00   0.1712891025E-01   0.4381039071E-01
   0.4002285817E+00  -0.2570359016E+01   0.4067368741E+00  -0.2790369287E-02   0.5614612375E-01   0.6736868109E-02   0.0000000000E+00   0.0000000000E+00   0.0000000000E+00   0.2161654213E+00  -0.4812526138E+00   0.2236045568E+00  -0.5195334776E-01   0.5049876485E-02   0.3070384281E-01
   0.1941694428E+00  -0.2572221239E+01   0.4067650467E+00  -0.3492762169E-02   0.5688814147E-01   0.6765040699E-02   0.0000000000E+00   0.0000000000E+00   0.0000000000E+00   0.2470795642E+00  -0.4411894565E+00   0.2589605702E+00  -0.8855106462E-01   0.9472727565E-02   0.3206663327E-01
   0.4015354499E+00  -0.2384710069E+01   0.4061821667E+00  -0.2467604143E-02   0.5481458103E-01   0.6182160661E-02   0.0000000000E+00   0.0000000000E+00   0.0000000000E+00   0.1677759101E+00  -0.5524336787E+00   0.1671778795E+00  -0.6090733426E-01   0.4142534990E-02   0.2610832235E-01
   0.1952463519E+00  -0.2387996718E+01   0.4062146429E+00  -0.3204005083E-02   0.5558534152E-01   0.6214636910E-02   0.0000000000E+00   0.0000000000E+00   0.0000000000E+00   0.2079177006E+00  -0.4983601949E+00   0.2083407535E+00  -0.7379959146E-01   0.6071893319E-02   0.2782900779E-01
   0.4030436659E+00  -0.2199038914E+01   0.4056605642E+00  -0.2144745077E-02   0.5344922640E-01   0.5660558208E-02   0.0000000000E+00   0.0000000000E+00   0.0000000000E+00   0.1561214396E+00  -0.5840352709E+00   0.1471891633E+00  -0.7314942632E-01   0.1949804876E-02   0.2206503932E-01
   0.1965089926E+00  -0.2204099730E+01   0.4057045811E+00  -0.2913039420E-02   0.5426829012E-01   0.5704575077E-02   0.0000000000E+00   0.0000000000E+00   0.0000000000E+00   0.1742846368E+00  -0.5435327333E+00   0.1607367234E+00  -0.6848156590E-01   0.2555880682E-02   0.2373329592E-01
   0.4046791929E+00  -0.2013370188E+01   0.4051679055E+00  -0.1821832121E-02   0.5205568207E-01   0.5167899464E-02   0.0000000000E+00   0.0000000000E+00   0.0000000000E+00   0.1235816694E+00  -0.6347493748E+00   0.1052523757E+00  -0.8883407617E-01  -0.1208135756E-02   0.1872072726E-01
   0.1989261333E+00  -0.2023726110E+01   0.4052394072E+00  -0.2622472740E-02   0.5297076021E-01   0.5239401222E-02   0.0000000000E+00   0.0000000000E+00   0.0000000000E+00   0.1510815210E+00  -0.5732530360E+00   0.1186265392E+00  -0.7136824731E-01  -0.1430089842E-02   0.2096520886E-01
   0.4070369056E+00  -0.1830083926E+01   0.4047091028E+00  -0.1505787382E-02   0.5065218364E-01   0.4709096843E-02   0.0000000000E+00   0.0000000000E+00   0.0000000000E+00   0.1207368013E+00  -0.6568965694E+00   0.8759215567E-01  -0.1087605339E+00  -0.5071658541E-02   0.1588870436E-01
   0.2001360302E+00  -0.1839771923E+01   0.4047994275E+00  -0.2344077832E-02   0.5166369747E-01   0.4799421523E-02   0.0000000000E+00   0.0000000000E+00   0.0000000000E+00   0.1583493561E+00  -0.5707289990E+00   0.9735954151E-01  -0.8121446267E-01  -0.5402244371E-02   0.1837664551E-01
   0.4086561621E+00  -0.1643351875E+01   0.4042635312E+00  -0.1183378859E-02   0.4920343487E-01   0.4263525230E-02   0.0000000000E+00   0.0000000000E+00   0.0000000000E+00   0.9533558924E-01  -0.7015308621E+00   0.4645413722E-01  -0.1333368563E+00  -0.9905315779E-02   0.1316149703E-01
   0.2028836633E+00  -0.1661857249E+01   0.4044010092E+00  -0.2066520717E-02   0.5041730053E-01   0.4401003188E-02   0.0000000000E+00   0.0000000000E+00   0.0000000000E+00   0.1859258182E+00  -0.5432402080E+00   0.9220984390E-01  -0.9702914517E-01  -0.1001115792E-01   0.1632668088E-01
   0.4110616500E+00  -0.1458997479E+01   0.4038455410E+00  -0.8593150263E-03   0.4774500055E-01   0.3845535001E-02   0.0000000000E+00   0.0000000000E+00   0.0000000000E+00   0.7913634262E-01  -0.7412919888E+00   0.9493286366E-02  -0.1667445898E+00  -0.1575840994E-01   0.1204311745E-01
   0.2045966960E+00  -0.1482096134E+01   0.4040229937E+00  -0.1794162018E-02   0.4919463557E-01   0.4022987680E-02   0.0000000000E+00   0.0000000000E+00   0.0000000000E+00   0.2419709795E+00  -0.4868072033E+00   0.1086821464E+00  -0.1233778948E+00  -0.1497810811E-01   0.1443448745E-01
   0.4139891657E+00  -0.1274405662E+01   0.4034494565E+00  -0.5313063429E-03   0.4625313802E-01   0.3449450454E-02   0.0000000000E+00   0.0000000000E+00   0.0000000000E+00   0.1049541189E+00  -0.7422250528E+00   0.7280286964E-02  -0.2076118318E+00  -0.2273167974E-01   0.1103193309E-01
   0.2053159244E+00  -0.1295428870E+01   0.4036527942E+00  -0.1526721646E-02   0.4796958022E-01   0.3652788177E-02   0.0000000000E+00   0.0000000000E+00   0.0000000000E+00   0.2761329514E+00  -0.4531799775E+00   0.9564162520E-01  -0.1571428659E+00  -0.2042370861E-01   0.1372650156E-01
   0.4180071743E+00  -0.1089583295E+01   0.4030761360E+00  -0.1695067265E-03   0.4472671487E-01   0.3076130019E-02   0.0000000000E+00   0.0000000000E+00   0.0000000000E+00   0.1115599066E+00  -0.7665839928E+00  -0.2417972530E-01  -0.2520258258E+00  -0.3235794627E-01   0.1352965804E-01
   0.2079629534E+00  -0.1117549302E+01   0.4033252611E+00  -0.1253074575E-02   0.4683494775E-01   0.3325255076E-02   0.0000000000E+00   0.0000000000E+00   0.0000000000E+00   0.3732328968E+00  -0.3613933488E+00   0.1332868354E+00  -0.1952271465E+00  -0.2601466234E-01   0.1518177284E-01
   0.4239116464E+00  -0.9093258504E+00   0.4027576413E+00   0.3022703746E-03   0.4321955362E-01   0.2757635255E-02   0.0000000000E+00   0.0000000000E+00   0.0000000000E+00   0.2569128399E+00  -0.6205258185E+00   0.6797980347E-01  -0.2810354675E+00  -0.4777744603E-01   0.1886299194E-01
   0.2115999880E+00  -0.9515926353E+00   0.4030441176E+00  -0.9257219878E-03   0.4581492067E-01   0.3044111627E-02   0.0000000000E+00   0.0000000000E+00   0.0000000000E+00   0.3884400418E+00  -0.3378063696E+00   0.8441363751E-01  -0.2058296829E+00  -0.2894111109E-01   0.1951449669E-01
   0.4271320244E+00  -0.7427717878E+00   0.4024748569E+00   0.8869903605E-03   0.4191489724E-01   0.2474850938E-02   0.0000000000E+00   0.0000000000E+00   0.0000000000E+00   0.7794898685E+00  -0.1434195134E+00   0.5169325961E+00  -0.3762976160E+00  -0.6102167442E-01   0.2048889358E-02
   0.2130200174E+00  -0.8079392767E+00   0.4028130550E+00  -0.5309226087E-03   0.4499079228E-01   0.2813048958E-02   0.0000000000E+00   0.0000000000E+00   0.0000000000E+00   0.7127285018E+00  -0.6029778842E-01   0.3157275815E+00  -0.2504622395E+00  -0.2884726101E-01   0.1399892019E-01
   0.1865067524E+00  -0.6818240256E+00   0.4025728605E+00  -0.5901566013E-03   0.4446429338E-01   0.2572854527E-02   0.0000000000E+00   0.0000000000E+00   0.0000000000E+00  -0.2210749899E-01  -0.8479670829E+00  -0.4715002534E+00  -0.3163611886E+00  -0.2774317206E-01   0.6447415861E-02
   0.3657198646E+00  -0.6135084600E+00   0.4022466332E+00   0.6957745639E-03   0.4166895401E-01   0.2246627211E-02   0.0000000000E+00   0.0000000000E+00   0.0000000000E+00   0.3656061735E+00  -0.7538913679E+00  -0.2345439153E-01  -0.4525135589E+00  -0.6364879332E-01  -0.2725230413E-01
   0.1803906023E+01   0.8726922278E+00   0.3997914461E+00   0.8726533489E-02   0.1595389877E-01  -0.2085598773E-03   0.0000000000E+00   0.0000000000E+00   0.0000000000E+00   0.5028523474E-01  -0.9989404562E+00  -0.2739589993E-01  -0.5365750773E-01   0.2944779254E-02  -0.5843563903E-02
   0.1814648156E+01   0.6613789254E+00   0.3999561619E+00   0.9675505699E-02   0.1814300344E-01  -0.4384412929E-04   0.0000000000E+00   0.0000000000E+00   0.0000000000E+00   0.1132397558E+00  -0.9569250950E+00   0.3346158291E-02  -0.5710173001E-01   0.1440363868E-02   0.1288333712E-02
   0.2010813602E+01   0.6617529314E+00   0.3998567093E+00   0.1081360219E-01   0.1870088943E-01  -0.1432966635E-03   0.0000000000E+00   0.0000000000E+00   0.0000000000E+00   0.1933939713E+00  -0.8340935501E+00   0.5882339969E-01  -0.3051008167E-01   0.5927402196E-02  -0.3284514963E-02
   0.2009871946E+01   0.8731594610E+00   0.3996712350E+00   0.9871945841E-02   0.1662861597E-01  -0.3287709779E-03   0.0000000000E+00   0.0000000000E+00   0.0000000000E+00   0.1153015746E+00  -0.9086276030E+00   0.2452696148E-01  -0.3851006627E-01   0.5136179284E-02  -0.9257079485E-02
   0.1825593995E+01   0.4500035520E+00   0.4000989544E+00   0.1054458527E-01   0.2033363502E-01   0.9894836382E-04   0.0000000000E+00   0.0000000000E+00   0.0000000000E+00   0.4211404212E-01  -0.1009976281E+01  -0.3081687680E-01  -0.5715341364E-01   0.7058696580E-04   0.7761927021E-02
   0.2011576579E+01   0.4499211573E+00   0.4000261795E+00   0.1157657852E-01   0.2073245828E-01   0.2617352170E-04   0.0000000000E+00   0.0000000000E+00   0.0000000000E+00   0.1734232567E+00  -0.8227929754E+00   0.5738016200E-01  -0.2434223020E-01   0.5791827118E-02   0.3232792607E-02
   0.1832990236E+01   0.2398779787E+00   0.4002616137E+00   0.1117879639E-01   0.2249745465E-01   0.2616077250E-03   0.0000000000E+00   0.0000000000E+00   0.0000000000E+00  -0.4519257083E-01  -0.1070223253E+01  -0.6592859264E-01  -0.3951714119E-01  -0.2187074654E-02   0.5611855336E-02
   0.2012105954E+01   0.2393478554E+00   0.4002088661E+00   0.1210595418E-01   0.2270671240E-01   0.2088600928E-03   0.0000000000E+00   0.0000000000E+00   0.0000000000E+00   0.1632626669E+00  -0.7968671089E+00   0.8442205718E-01  -0.1905055627E-01   0.4278920895E-02   0.3223693253E-02
   0.1596684403E+01   0.8724690047E+00   0.3999012182E+00   0.7551733479E-02   0.1552497967E-01  -0.9878784789E-04   0.0000000000E+00   0.0000000000E+00   0.0000000000E+00   0.6158367476E-01  -0.1017178216E+01  -0.1640019770E-01  -0.7162178934E-01   0.1863131704E-02  -0.6486357746E-02
   0.1617938506E+01   0.6610502792E+00   0.4000597406E+00   0.8502705870E-02   0.1779999217E-01   0.5973458249E-04   0.0000000000E+00   0.0000000000E+00   0.0000000000E+00   0.1508687084E+00  -0.9641116241E+00   0.3928755838E-01  -0.8836349764E-01  -0.2274328322E-02   0.2579483864E-02
   0.1638949280E+01   0.4496896768E+00   0.4001821661E+00   0.9490610480E-02   0.2010067382E-01   0.1821600629E-03   0.0000000000E+00   0.0000000000E+00   0.0000000000E+00   0.6097882100E-01  -0.1037735765E+01   0.5241918598E-02  -0.9583828560E-01  -0.4897890744E-02   0.1012147112E-01
   0.1654144617E+01   0.2390006839E+00   0.4003292501E+00   0.1024755668E-01   0.2239884986E-01   0.3292440812E-03   0.0000000000E+00   0.0000000000E+00   0.0000000000E+00  -0.4541789773E-02  -0.1075399076E+01   0.7919149360E-02  -0.6294503943E-01  -0.7611238730E-02   0.6783394336E-02
   0.1387461121E+01   0.8722934686E+00   0.3999983800E+00   0.6334721415E-02   0.1518356464E-01  -0.1626032032E-05   0.0000000000E+00   0.0000000000E+00   0.0000000000E+00   0.6643242730E-01  -0.1031476064E+01  -0.1583050749E-01  -0.4562386858E-01   0.1037513436E-02  -0.8288389320E-02
   0.1420318498E+01   0.6598169310E+00   0.4001571168E+00   0.7279648311E-02   0.1754338599E-01   0.1571107591E-03   0.0000000000E+00   0.0000000000E+00   0.0000000000E+00   0.1883430868E+00  -0.9613308118E+00   0.6604224970E-01  -0.8581807368E-01  -0.3195249942E-02   0.4629885145E-02
   0.1452149253E+01   0.4481159488E+00   0.4002588487E+00   0.8412223377E-02   0.1994368776E-01   0.2588427098E-03   0.0000000000E+00   0.0000000000E+00   0.0000000000E+00   0.6771775934E-01  -0.1070557880E+01   0.2004384034E-01  -0.1131699707E+00  -0.5135312739E-02   0.1379659694E-01
   0.1475825596E+01   0.2375226299E+00   0.4003895246E+00   0.9308386051E-02   0.2234950493E-01   0.3895186460E-03   0.0000000000E+00   0.0000000000E+00   0.0000000000E+00  -0.2138182355E-01  -0.1131012612E+01   0.1601917258E-01  -0.7515872232E-01  -0.7757460917E-02   0.8665967250E-02
   0.1174073938E+01   0.8716267592E+00   0.4000766807E+00   0.5066757870E-02   0.1478233423E-01   0.7667469902E-04   0.0000000000E+00   0.0000000000E+00   0.0000000000E+00   0.1001906578E+00  -0.1028102340E+01   0.5852559863E-02  -0.9290339251E-02   0.2261190020E-02  -0.9989803511E-02
   0.1221712505E+01   0.6561098528E+00   0.4002353756E+00   0.6007345366E-02   0.1726840284E-01   0.2353695999E-03   0.0000000000E+00   0.0000000000E+00   0.0000000000E+00   0.1941574291E+00  -0.1014647918E+01   0.4879755129E-01  -0.7866154719E-01  -0.3381457661E-02   0.7862079548E-02
   0.1266807966E+01   0.4438874530E+00   0.4003113530E+00   0.7322125521E-02   0.1980106099E-01   0.3113470159E-03   0.0000000000E+00   0.0000000000E+00   0.0000000000E+00  -0.1432555193E-01  -0.1208291712E+01  -0.5633634372E-01  -0.1298501637E+00  -0.5892128106E-02   0.1850222540E-01
   0.1300402659E+01   0.2343767827E+00   0.4004243892E+00   0.8374108550E-02   0.2232801368E-01   0.4243832169E-03   0.0000000000E+00   0.0000000000E+00   0.0000000000E+00  -0.9115424942E-01  -0.1250607932E+01  -0.2777583190E-01  -0.8569336129E-01  -0.6390524157E-02   0.1096262672E-01
   0.9497089127E+00   0.8694004615E+00   0.4001218757E+00   0.3745291698E-02   0.1403935746E-01   0.1218696954E-03   0.0000000000E+00   0.0000000000E+00   0.0000000000E+00   0.1379699634E+00  -0.9048762643E+00   0.1026299295E+00   0.1770251153E+00   0.3427858189E-02  -0.9784246187E-02
   0.1023459084E+01   0.6470766942E+00   0.4002652412E+00   0.4735123856E-02   0.1682016018E-01   0.2652351941E-03   0.0000000000E+00   0.0000000000E+00   0.0000000000E+00   0.3110517848E+00  -0.8226904968E+00   0.2396429539E+00   0.3544621976E-01   0.1089335570E-01   0.1825129162E-01
   0.1087417389E+01   0.4350531949E+00   0.4003203481E+00   0.6270549052E-02   0.1957866086E-01   0.3203420956E-03   0.0000000000E+00   0.0000000000E+00   0.0000000000E+00   0.2381120398E+00  -0.9670251049E+00   0.2488386238E+00  -0.7342781829E-01   0.1094937383E-01   0.2857581078E-01
   0.1132923152E+01   0.2287596930E+00   0.4004108113E+00   0.7474332005E-02   0.2228316903E-01   0.4108053223E-03   0.0000000000E+00   0.0000000000E+00   0.0000000000E+00   0.1003844084E+00  -0.1110427792E+01   0.2181721001E+00  -0.5510267946E-01   0.1083520566E-01   0.1762571979E-01
   0.6910469611E+00   0.8616036711E+00   0.4001855909E+00   0.2498456079E-02   0.1178621608E-01   0.1855849471E-03   0.0000000000E+00   0.0000000000E+00   0.0000000000E+00   0.5667745591E-01  -0.8593260971E+00   0.6453383849E-01   0.3033994806E+00  -0.1846101453E-01   0.1372034257E-01
   0.8335700014E+00   0.6258720771E+00   0.4001487933E+00   0.3797290368E-02   0.1560038511E-01   0.1487873222E-03   0.0000000000E+00   0.0000000000E+00   0.0000000000E+00  -0.1116888975E+00  -0.1236185639E+01  -0.1219342381E-01   0.1536842270E+00   0.2415460064E-01   0.4416075137E-01
   0.9245184894E+00   0.4193014180E+00   0.4001862671E+00   0.5419039432E-02   0.1895269496E-01   0.1862611222E-03   0.0000000000E+00   0.0000000000E+00   0.0000000000E+00  -0.3156061118E+00  -0.1637804963E+01  -0.1788189971E+00   0.3176885680E-02   0.3099567562E-01   0.3696805146E-01
   0.9824674381E+00   0.2206601321E+00   0.4002758618E+00   0.6672467096E-02   0.2207261011E-01   0.2758557706E-03   0.0000000000E+00   0.0000000000E+00   0.0000000000E+00  -0.4597882135E+00  -0.1821805393E+01  -0.2347280553E+00  -0.2958158904E-01   0.3423725832E-01   0.2324042557E-01
   0.8538167146E+00   0.2082354361E+00   0.4000910857E+00   0.5946305562E-02   0.2200558111E-01   0.9107965802E-04   0.0000000000E+00   0.0000000000E+00   0.0000000000E+00   0.3411079540E+00  -0.1211707205E+01   0.6882598687E+00  -0.5547425860E-02   0.5595627902E-01   0.3284042110E-01
   0.7370791758E+00   0.1862847829E+00   0.3998313683E+00   0.5302222775E-02   0.2196032090E-01  -0.1686377161E-03   0.0000000000E+00   0.0000000000E+00   0.0000000000E+00  -0.2553552762E+01  -0.4294871272E+01  -0.2002239147E+01   0.8455054309E-01   0.7812080781E-01   0.3647377182E-01
   0.7923056091E+00   0.3938825482E+00   0.4000213034E+00   0.4753431070E-02   0.1855427516E-01   0.2129736330E-04   0.0000000000E+00   0.0000000000E+00   0.0000000000E+00   0.4955907162E+00  -0.9634357933E+00   0.7667117242E+00   0.5644545595E-01   0.4332909236E-01   0.5368402046E-01
   0.6806389612E+00   0.3427853737E+00   0.3997951015E+00   0.4389934210E-02   0.1845954374E-01  -0.2049044645E-03   0.0000000000E+00   0.0000000000E+00   0.0000000000E+00  -0.2413765719E+01  -0.3963196200E+01  -0.1903539645E+01   0.1759418816E+00   0.4700271740E-01   0.8616080614E-01
   0.6969865268E+00   0.5748501985E+00   0.4000389589E+00   0.3320843777E-02   0.1502012853E-01   0.3895292074E-04   0.0000000000E+00   0.0000000000E+00   0.0000000000E+00  -0.5723607851E+00  -0.1794103970E+01  -0.3587861100E+00   0.1951772395E+00  -0.3549244264E-02   0.6345571815E-01
   0.5879645909E+00   0.4846506829E+00   0.3999731949E+00   0.3218170946E-02   0.1500014586E-01  -0.2681105888E-04   0.0000000000E+00   0.0000000000E+00   0.0000000000E+00  -0.7993406360E+00  -0.2108941916E+01  -0.4901320871E+00   0.2690215613E+00  -0.4559201169E-01   0.9152550497E-01
   0.5650744382E+00   0.7230788356E+00   0.4002620704E+00   0.2183074215E-02   0.1180766861E-01   0.2620643973E-03   0.0000000000E+00   0.0000000000E+00   0.0000000000E+00  -0.1172991137E+00  -0.1107440502E+01  -0.1239400618E+00   0.2972749259E+00  -0.5783888348E-01   0.4982953508E-01
   0.4669596020E+00   0.6003671256E+00   0.4003290918E+00   0.2024895014E-02   0.1186418157E-01   0.3290857631E-03   0.0000000000E+00   0.0000000000E+00   0.0000000000E+00   0.2202783745E+00  -0.9075130826E+00   0.1574343483E+00   0.3387573093E+00  -0.8505102644E-01   0.6081834007E-01
   0.3943788584E+00   0.8236293259E+00   0.4005150081E+00   0.1188772436E-02   0.9082919853E-02   0.5150021486E-03   0.0000000000E+00   0.0000000000E+00   0.0000000000E+00   0.4900424494E+00  -0.2624105572E+00   0.2810749263E+00   0.3273455501E+00  -0.5168817743E-01   0.6760739534E-02
   0.3240438925E+00   0.6861116789E+00   0.4006217078E+00   0.9769725176E-03   0.9260286875E-02   0.6217017567E-03   0.0000000000E+00   0.0000000000E+00   0.0000000000E+00   0.2953797001E+00  -0.5279794700E+00   0.1747709345E-01   0.3344574710E+00  -0.6500327955E-01   0.1850294087E-01
   0.1987070240E+00   0.8834657962E+00   0.4006256493E+00   0.3307710182E-03   0.7114916179E-02   0.6256432809E-03   0.0000000000E+00   0.0000000000E+00   0.0000000000E+00   0.2411476181E+00  -0.3247440848E+00  -0.2045202504E-01   0.2196099505E+00  -0.2494707257E-01  -0.1094885808E-01
   0.1652290122E+00   0.7391579386E+00   0.4007518521E+00   0.1596852323E-03   0.7548653623E-02   0.7518461229E-03   0.0000000000E+00   0.0000000000E+00   0.0000000000E+00   0.3281731280E+00  -0.2426149144E+00   0.3720345335E-02   0.2011717352E+00  -0.3116161257E-01  -0.1580782775E-01
   0.4365470607E+00   0.9733726293E+00   0.4003899064E+00   0.1386423683E-02   0.8504203323E-02   0.3899004458E-03   0.0000000000E+00   0.0000000000E+00   0.0000000000E+00   0.2309953269E+00  -0.4704457237E+00   0.9223048310E-01   0.3147327801E+00  -0.3780787119E-01  -0.1575628780E-02
   0.2173420360E+00   0.1037515624E+01   0.4005126021E+00   0.5395280138E-03   0.6519064440E-02   0.5125960558E-03   0.0000000000E+00   0.0000000000E+00   0.0000000000E+00   0.3046676255E+00  -0.2490056651E+00   0.8813428001E-01   0.2003886200E+00  -0.1965223075E-01  -0.3112112660E-02
   0.2276385621E+00   0.1216155977E+01   0.4004071565E+00   0.6345410579E-03   0.5785797431E-02   0.4071504654E-03   0.0000000000E+00   0.0000000000E+00   0.0000000000E+00   0.2985333182E+00  -0.2205820000E+00   0.1203431317E+00   0.1496538344E+00  -0.1514054627E-01  -0.4766829245E-02
   0.2306694678E+00   0.1407576369E+01   0.4002762581E+00   0.6061337928E-03   0.4968689410E-02   0.2762521279E-03   0.0000000000E+00   0.0000000000E+00   0.0000000000E+00   0.1910827624E+00  -0.3031239396E+00   0.7061353010E-01   0.1110761677E+00  -0.1482117299E-01  -0.8260480555E-02
   0.2311669154E+00   0.1603730128E+01   0.4001581485E+00   0.5828304096E-03   0.4113838062E-02   0.1581425012E-03   0.0000000000E+00   0.0000000000E+00   0.0000000000E+00   0.1316587741E+00  -0.3362719507E+00   0.6336534760E-01   0.8202021233E-01  -0.1187739103E-01  -0.6466823615E-02
   0.2308969904E+00   0.1801675439E+01   0.4000619181E+00   0.5450353852E-03   0.3262158875E-02   0.6191214923E-04   0.0000000000E+00   0.0000000000E+00   0.0000000000E+00   0.6854494611E-01  -0.3659982350E+00   0.4286918815E-01   0.5318098740E-01  -0.8894457700E-02  -0.5345436421E-02
   0.2304295387E+00   0.2000333574E+01   0.3999881731E+00   0.4983186978E-03   0.2442744318E-02  -0.1183286283E-04   0.0000000000E+00   0.0000000000E+00   0.0000000000E+00   0.3702055076E-01  -0.3566013219E+00   0.4435040349E-01   0.3087065063E-01  -0.6388933900E-02  -0.4020792686E-02
   0.2299856688E+00   0.2199223107E+01   0.3999375508E+00   0.4347858079E-03   0.1686397416E-02  -0.6245518185E-04   0.0000000000E+00   0.0000000000E+00   0.0000000000E+00  -0.3823912192E-01  -0.3806188272E+00  -0.6902551961E-02   0.1251349661E-01  -0.4302429155E-02  -0.2328909818E-02
   0.2294179157E+00   0.2398765128E+01   0.3999115832E+00   0.3556567247E-03   0.1022858427E-02  -0.8842283190E-04   0.0000000000E+00   0.0000000000E+00   0.0000000000E+00   0.1115987792E+00  -0.1675999595E+00   0.1558097184E+00  -0.1295032771E-02  -0.2858191696E-02   0.1675108806E-03
   0.2290579001E+00   0.2598799053E+01   0.3999121781E+00   0.2598531158E-03   0.4902532674E-03  -0.8782787030E-04   0.0000000000E+00   0.0000000000E+00   0.0000000000E+00  -0.5147082899E+00  -0.7201614359E+00  -0.4702258461E+00  -0.1135251350E-01  -0.1880582630E-02   0.3522779754E-02
   0.2294318463E+00   0.2799238636E+01   0.3999413907E+00   0.1461293282E-03   0.1325159298E-03  -0.5861528634E-04   0.0000000000E+00   0.0000000000E+00   0.0000000000E+00   0.1749421026E+01   0.1645011534E+01   0.1779077918E+01  -0.2029197709E-01  -0.9246791096E-03   0.8273924815E-02
   0.2284518480E+00   0.3000000000E+01   0.4000000060E+00   0.0000000000E+00   0.0000000000E+00   0.0000000000E+00   0.0000000000E+00   0.0000000000E+00   0.0000000000E+00  -0.6842500600E+01  -0.6869890153E+01  -0.6842482984E+01  -0.2541875052E-01   0.1561028912E-04   0.1077066672E-01
   0.4483134549E+00   0.1169510813E+01   0.4002815539E+00   0.1459876932E-02   0.7375453011E-02   0.2815479097E-03   0.0000000000E+00   0.0000000000E+00   0.0000000000E+00   0.3036704543E+00  -0.3745728001E+00   0.1833805942E+00   0.2146938192E+00  -0.3085898218E-01  -0.5594700774E-02
   0.4499771892E+00   0.1372245697E+01   0.4001480648E+00   0.1318901216E-02   0.6175786686E-02   0.1480587630E-03   0.0000000000E+00   0.0000000000E+00   0.0000000000E+00   0.5062523259E-02  -0.6053610609E+00  -0.4369859145E-01   0.1443513756E+00  -0.2236142278E-01  -0.9356930960E-02
   0.4495133646E+00   0.1575138841E+01   0.4000481697E+00   0.1197982584E-02   0.5000390808E-02   0.4816365086E-04   0.0000000000E+00   0.0000000000E+00   0.0000000000E+00   0.1915938600E-01  -0.5500281499E+00   0.6626040708E-02   0.1051686549E+00  -0.1545378292E-01  -0.5127822865E-02
   0.4489471249E+00   0.1777822667E+01   0.3999722679E+00   0.1073412944E-02   0.3892716625E-02  -0.2773805683E-04   0.0000000000E+00   0.0000000000E+00   0.0000000000E+00  -0.2254088699E-01  -0.5371229016E+00  -0.4621560418E-02   0.6654681370E-01  -0.1085822046E-01  -0.4133415399E-02
   0.4485310289E+00   0.1980592684E+01   0.3999174406E+00   0.9427338548E-03   0.2871583555E-02  -0.8256540814E-04   0.0000000000E+00   0.0000000000E+00   0.0000000000E+00  -0.1650111808E-01  -0.4734030917E+00   0.2296333749E-01   0.3671256173E-01  -0.7520053060E-02  -0.2512082865E-02
   0.4481848825E+00   0.2183579647E+01   0.3998836761E+00   0.7946834982E-03   0.1957616794E-02  -0.1163298508E-03   0.0000000000E+00   0.0000000000E+00   0.0000000000E+00  -0.7020694360E-01  -0.4614783078E+00  -0.1626229033E-01   0.1164654427E-01  -0.5094509175E-02  -0.8120312456E-03
   0.4478253144E+00   0.2386979585E+01   0.3998720425E+00   0.6294863796E-03   0.1175405442E-02  -0.1279635018E-03   0.0000000000E+00   0.0000000000E+00   0.0000000000E+00   0.1112598581E+00  -0.2037408365E+00   0.1712528654E+00  -0.7839293038E-02  -0.3469668322E-02   0.1703707261E-02
   0.4476318261E+00   0.2590868973E+01   0.3998853595E+00   0.4451181359E-03   0.5584033112E-03  -0.1146465074E-03   0.0000000000E+00   0.0000000000E+00   0.0000000000E+00  -0.5676422740E+00  -0.7968190820E+00  -0.5123561393E+00  -0.2221283759E-01  -0.2392842408E-02   0.5164832852E-02
   0.4478972801E+00   0.2795226449E+01   0.3999270311E+00   0.2407080529E-03   0.1493587451E-03  -0.7297492350E-04   0.0000000000E+00   0.0000000000E+00   0.0000000000E+00   0.1935010601E+01   0.1820416880E+01   0.1971311383E+01  -0.3410638501E-01  -0.1103283886E-02   0.1022613552E-01
   0.4470604360E+00   0.3000000000E+01   0.4000000060E+00   0.0000000000E+00   0.0000000000E+00   0.0000000000E+00   0.0000000000E+00   0.0000000000E+00   0.0000000000E+00  -0.7505049164E+01  -0.7534973784E+01  -0.7504971448E+01  -0.4045494944E-01   0.1901553397E-04   0.1297689322E-01
   0.6814746094E+00   0.1116107670E+01   0.4000706305E+00   0.2434713374E-02   0.9440269579E-02   0.7062448954E-04   0.0000000000E+00   0.0000000000E+00   0.0000000000E+00  -0.1196862386E+00  -0.9464187370E+00  -0.1024137540E+00   0.2535637244E+00  -0.2764119674E-01  -0.3638366825E-02
   0.6736353382E+00   0.1336910255E+01   0.3999888663E+00   0.2120529228E-02   0.7626654680E-02  -0.1113974628E-04   0.0000000000E+00   0.0000000000E+00   0.0000000000E+00   0.7151734512E-01  -0.6681451987E+00   0.1050123598E+00   0.1643783699E+00  -0.2051701276E-01  -0.8168282885E-03
   0.6698397563E+00   0.1547123177E+01   0.3999210820E+00   0.1885848299E-02   0.6062367206E-02  -0.7892397681E-04   0.0000000000E+00   0.0000000000E+00   0.0000000000E+00   0.4927709279E-01  -0.6290991021E+00   0.9273278740E-01   0.1276862825E+00  -0.1641985530E-01  -0.2182726134E-02
   0.6685503416E+00   0.1754281809E+01   0.3998683887E+00   0.1663892573E-02   0.4667449364E-02  -0.1316172528E-03   0.0000000000E+00   0.0000000000E+00   0.0000000000E+00   0.3289185495E-01  -0.5730374905E+00   0.9142006500E-01   0.8029914930E-01  -0.1214194452E-01  -0.1414993802E-02
   0.6681921208E+00   0.1960969230E+01   0.3998318709E+00   0.1440616803E-02   0.3415720070E-02  -0.1681350643E-03   0.0000000000E+00   0.0000000000E+00   0.0000000000E+00   0.1703727058E-01  -0.5156896307E+00   0.8725422251E-01   0.4389596592E-01  -0.8833283655E-02  -0.5494437779E-03
   0.6679696538E+00   0.2167888455E+01   0.3998147079E+00   0.1199731771E-02   0.2312954567E-02  -0.1852981037E-03   0.0000000000E+00   0.0000000000E+00   0.0000000000E+00  -0.5558124285E-01  -0.5085966804E+00   0.2150116147E-01   0.1175251271E-01  -0.6258595447E-02   0.1178810379E-02
   0.6677360249E+00   0.2375142187E+01   0.3998190680E+00   0.9383268676E-03   0.1381007092E-02  -0.1809380461E-03   0.0000000000E+00   0.0000000000E+00   0.0000000000E+00   0.1406825912E+00  -0.2218715137E+00   0.2177940280E+00  -0.1400205114E-01  -0.4517180676E-02   0.3844415155E-02
   0.6675220267E+00   0.2582819440E+01   0.3998484271E+00   0.6534597474E-03   0.6532502801E-03  -0.1515788668E-03   0.0000000000E+00   0.0000000000E+00   0.0000000000E+00  -0.6380776336E+00  -0.9002692010E+00  -0.5706129677E+00  -0.3352050472E-01  -0.3307810959E-02   0.7484597250E-02
   0.6674383722E+00   0.2791066165E+01   0.3999067710E+00   0.3449762203E-03   0.1742753189E-03  -0.9323499445E-04   0.0000000000E+00   0.0000000000E+00   0.0000000000E+00   0.2212064233E+01   0.2081984351E+01   0.2256006399E+01  -0.4874477117E-01  -0.1492553193E-02   0.1298700824E-01
   0.6674458380E+00   0.3000000000E+01   0.4000000060E+00   0.0000000000E+00   0.0000000000E+00   0.0000000000E+00   0.0000000000E+00   0.0000000000E+00   0.0000000000E+00  -0.8551497484E+01  -0.8585668302E+01  -0.8551445724E+01  -0.5625814587E-01   0.1834747853E-04   0.1609896110E-01
   0.8892364736E+00   0.2788248847E+01   0.3998802754E+00   0.4628535893E-03   0.2065369247E-03  -0.1197306083E-03   0.0000000000E+00   0.0000000000E+00   0.0000000000E+00   0.2580573523E+01   0.2429166507E+01   0.2632902369E+01  -0.6607173160E-01  -0.1317077004E-02   0.1673407453E-01
   0.8889284130E+00   0.3000000000E+01   0.4000000060E+00   0.0000000000E+00   0.0000000000E+00   0.0000000000E+00   0.0000000000E+00   0.0000000000E+00   0.0000000000E+00  -0.9991811725E+01  -0.1003183947E+02  -0.9991801941E+01  -0.7395818687E-01   0.1005910694E-04   0.2020401519E-01
   0.1111356703E+01   0.2786651261E+01   0.3998550064E+00   0.5980426279E-03   0.2366407682E-03  -0.1449995831E-03   0.0000000000E+00   0.0000000000E+00   0.0000000000E+00   0.2936901919E+01   0.2763912984E+01   0.2993779834E+01  -0.8759395219E-01   0.1836702576E-03   0.2048022338E-01
   0.1110863090E+01   0.3000000000E+01   0.4000000060E+00   0.0000000000E+00   0.0000000000E+00   0.0000000000E+00   0.0000000000E+00   0.0000000000E+00   0.0000000000E+00  -0.1139750084E+02  -0.1144316263E+02  -0.1139749106E+02  -0.9451200563E-01   0.6315216913E-05   0.2413274709E-01
   0.1333691151E+01   0.2785924773E+01   0.3998334784E+00   0.7534307120E-03   0.2597326720E-03  -0.1665276185E-03   0.0000000000E+00   0.0000000000E+00   0.0000000000E+00   0.3250183380E+01   0.3058406056E+01   0.3306555173E+01  -0.1109208108E+00   0.1187704579E-02   0.2389438274E-01
   0.1333017710E+01   0.3000000000E+01   0.4000000060E+00   0.0000000000E+00   0.0000000000E+00   0.0000000000E+00   0.0000000000E+00   0.0000000000E+00   0.0000000000E+00  -0.1249618319E+02  -0.1254626220E+02  -0.1249618024E+02  -0.1186334427E+00   0.2289840735E-05   0.2745091881E-01
   0.1556165866E+01   0.2785692441E+01   0.3998098117E+00   0.9303559537E-03   0.2815612825E-03  -0.1901942904E-03   0.0000000000E+00   0.0000000000E+00   0.0000000000E+00   0.3505811487E+01   0.3296452731E+01   0.3560932540E+01  -0.1388724699E+00   0.3498772559E-02   0.2768926790E-01
   0.1555290700E+01   0.3000000000E+01   0.4000000060E+00   0.0000000000E+00   0.0000000000E+00   0.0000000000E+00   0.0000000000E+00   0.0000000000E+00   0.0000000000E+00  -0.1363012657E+02  -0.1368475490E+02  -0.1363012585E+02  -0.1466735676E+00   0.4826702081E-06   0.3116912866E-01
   0.1778730688E+01   0.2785664605E+01   0.3997792366E+00   0.1128487811E-02   0.3016451933E-03  -0.2207693602E-03   0.0000000000E+00   0.0000000000E+00   0.0000000000E+00   0.3928665586E+01   0.3699969695E+01   0.3983826960E+01  -0.1603181834E+00  -0.5396454910E-03   0.3343615969E-01
   0.1777629730E+01   0.3000000000E+01   0.4000000060E+00   0.0000000000E+00   0.0000000000E+00   0.0000000000E+00   0.0000000000E+00   0.0000000000E+00   0.0000000000E+00  -0.1441777977E+02  -0.1447556872E+02  -0.1441778089E+02  -0.1786335529E+00  -0.1850446233E-06   0.3562060832E-01
   0.2001347262E+01   0.2785763905E+01   0.3996826938E+00   0.1347262404E-02   0.4016648778E-03  -0.3173121920E-03   0.0000000000E+00   0.0000000000E+00   0.0000000000E+00   0.5051616417E+01   0.4774904120E+01   0.5147512651E+01  -0.1807590380E+00  -0.5022277527E-02   0.4390801432E-01
   0.2000000000E+01   0.3000000000E+01   0.4000000060E+00   0.0000000000E+00   0.0000000000E+00   0.0000000000E+00   0.0000000000E+00   0.0000000000E+00   0.0000000000E+00  -0.2055085599E+02  -0.2063322740E+02  -0.2055085761E+02  -0.2145581588E+00  -0.5447405118E-06   0.5306811312E-01
   0.8894884305E+00   0.2577253387E+01   0.3997993960E+00   0.8907035179E-03   0.7739570413E-03  -0.2006099534E-03   0.0000000000E+00   0.0000000000E+00   0.0000000000E+00  -0.7759198670E+00  -0.1081133597E+01  -0.6939491286E+00  -0.4902562857E-01  -0.3387867707E-02   0.1094969027E-01
   0.1111761356E+01   0.2574021399E+01   0.3997531242E+00   0.1159816286E-02   0.8838789759E-03  -0.2468818123E-03   0.0000000000E+00   0.0000000000E+00   0.0000000000E+00  -0.9034196959E+00  -0.1249096667E+01  -0.8135279100E+00  -0.7213364250E-01  -0.1609659473E-02   0.1429843087E-01
   0.1334267309E+01   0.2572493968E+01   0.3997122877E+00   0.1462148662E-02   0.9669679544E-03  -0.2877182924E-03   0.0000000000E+00   0.0000000000E+00   0.0000000000E+00  -0.9777771504E+00  -0.1356401284E+01  -0.8875312205E+00  -0.9503417751E-01  -0.5793233575E-03   0.1755015912E-01
   0.1556937542E+01   0.2571964318E+01   0.3996674307E+00   0.1796571959E-02   0.1040988101E-02  -0.3325753095E-03   0.0000000000E+00   0.0000000000E+00   0.0000000000E+00  -0.1091714515E+01  -0.1499308296E+01  -0.1002094803E+01  -0.1213658939E+00  -0.3871603897E-03   0.2125478162E-01
   0.1779714195E+01   0.2571889829E+01   0.3996012525E+00   0.2159804904E-02   0.1125289184E-02  -0.3987534534E-03   0.0000000000E+00   0.0000000000E+00   0.0000000000E+00  -0.1026652677E+01  -0.1468539030E+01  -0.9283912587E+00  -0.1267707354E+00  -0.6151768305E-02   0.2745440404E-01
   0.2002546216E+01   0.2572123518E+01   0.3994729203E+00   0.2546216298E-02   0.1402127924E-02  -0.5270856960E-03   0.0000000000E+00   0.0000000000E+00   0.0000000000E+00  -0.1866498701E+01  -0.2369609604E+01  -0.1722994859E+01  -0.1274316687E+00  -0.1082903436E-01   0.3000357395E-01
   0.8897378238E+00   0.2366821762E+01   0.3997484704E+00   0.1289227784E-02   0.1639841769E-02  -0.2515356155E-03   0.0000000000E+00   0.0000000000E+00   0.0000000000E+00   0.1128117061E+00  -0.3100168720E+00   0.2110871510E+00  -0.2697311893E-01  -0.4080671958E-02   0.7378938666E-02
   0.1112110221E+01   0.2361927153E+01   0.3996854512E+00   0.1683440950E-02   0.1865983363E-02  -0.3145548388E-03   0.0000000000E+00   0.0000000000E+00   0.0000000000E+00   0.1174917813E+00  -0.3573776059E+00   0.2257483510E+00  -0.5297449849E-01  -0.1146472796E-02   0.1030779461E-01
   0.1334764464E+01   0.2359553478E+01   0.3996299157E+00   0.2119883640E-02   0.2032177888E-02  -0.3700903270E-03   0.0000000000E+00   0.0000000000E+00   0.0000000000E+00   0.1393699442E+00  -0.3753025123E+00   0.2475436745E+00  -0.7693222052E-01   0.2178507336E-03   0.1301535804E-01
   0.1557617358E+01   0.2358685190E+01   0.3995676820E+00   0.2594758324E-02   0.2175499513E-02  -0.4323240021E-03   0.0000000000E+00   0.0000000000E+00   0.0000000000E+00   0.1525303520E+00  -0.3959623114E+00   0.2600111363E+00  -0.1003236119E+00  -0.1155092501E-02   0.1624947460E-01
   0.1780595710E+01   0.2358553379E+01   0.3994757061E+00   0.3102229993E-02   0.2353399007E-02  -0.5242999018E-03   0.0000000000E+00   0.0000000000E+00   0.0000000000E+00   0.2153870761E+00  -0.3733996863E+00   0.3357519743E+00  -0.9402439110E-01  -0.6551978460E-02   0.2088557721E-01
   0.2003632741E+01   0.2358881070E+01   0.3993399109E+00   0.3632740951E-02   0.2794099527E-02  -0.6600950748E-03   0.0000000000E+00   0.0000000000E+00   0.0000000000E+00   0.9511370058E-01  -0.5425807268E+00   0.2518245476E+00  -0.8427354879E-01  -0.9733083388E-02   0.2207660716E-01
   0.8899700757E+00   0.2156812938E+01   0.3997224834E+00   0.1657735712E-02   0.2756868301E-02  -0.2775226479E-03   0.0000000000E+00   0.0000000000E+00   0.0000000000E+00  -0.1474413361E+00  -0.6775985729E+00  -0.4112767591E-01   0.2090889259E-03  -0.4914314572E-02   0.4782483497E-02
   0.1112412233E+01   0.2150236288E+01   0.3996472602E+00   0.2167483031E-02   0.3123917585E-02  -0.3527458126E-03   0.0000000000E+00   0.0000000000E+00   0.0000000000E+00  -0.1676842425E+00  -0.7575550324E+00  -0.5067044202E-01  -0.3208218090E-01  -0.1957688807E-03   0.7112122094E-02
   0.1335194380E+01   0.2146985066E+01   0.3995818573E+00   0.2725040234E-02   0.3383886058E-02  -0.4181487048E-03   0.0000000000E+00   0.0000000000E+00   0.0000000000E+00  -0.1732548691E+00  -0.8056132338E+00  -0.5815811565E-01  -0.5849463009E-01   0.1397916405E-02   0.9149812992E-02
   0.1558214631E+01   0.2145749775E+01   0.3995066192E+00   0.3324120779E-02   0.3603665008E-02  -0.4933867665E-03   0.0000000000E+00   0.0000000000E+00   0.0000000000E+00  -0.1732051658E+00  -0.8408396685E+00  -0.5984946609E-01  -0.7787512417E-01  -0.5885997393E-03   0.1162195256E-01
   0.1781381506E+01   0.2145545644E+01   0.3993988558E+00   0.3956695856E-02   0.3883763520E-02  -0.6011501746E-03   0.0000000000E+00   0.0000000000E+00   0.0000000000E+00  -0.1837998858E+00  -0.8912839548E+00  -0.5777818565E-01  -0.6361416176E-01  -0.4898261612E-02   0.1477872451E-01
   0.2004610439E+01   0.2145912831E+01   0.3992615681E+00   0.4610439262E-02   0.4451220681E-02  -0.7384378748E-03   0.0000000000E+00   0.0000000000E+00   0.0000000000E+00  -0.3119860115E+00  -0.1056365809E+01  -0.1602882010E+00  -0.4862849616E-01  -0.6562468383E-02   0.1546650519E-01
   0.8902168114E+00   0.1947153007E+01   0.3997177439E+00   0.2000673369E-02   0.4091536971E-02  -0.2822621038E-03   0.0000000000E+00   0.0000000000E+00   0.0000000000E+00  -0.1080119041E+00  -0.7340184001E+00   0.1231669106E-02   0.3106510555E-01  -0.6112224934E-02   0.3052088328E-02
   0.1112752678E+01   0.1938878937E+01   0.3996359122E+00   0.2618558431E-02   0.4612486605E-02  -0.3640938456E-03   0.0000000000E+00   0.0000000000E+00   0.0000000000E+00  -0.9855226587E-01  -0.7871004103E+00   0.2016841846E-01  -0.1262552445E-01   0.8636368574E-03   0.4759109022E-02
   0.1335668960E+01   0.1934723365E+01   0.3995655523E+00   0.3286879625E-02   0.4965764700E-02  -0.4344536835E-03   0.0000000000E+00   0.0000000000E+00   0.0000000000E+00  -0.9513316093E-01  -0.8245732485E+00   0.1849532083E-01  -0.4248355020E-01   0.2318585921E-02   0.6130613684E-02
   0.1558843650E+01   0.1933095630E+01   0.3994820073E+00   0.3996890198E-02   0.5259810098E-02  -0.5179987327E-03   0.0000000000E+00   0.0000000000E+00   0.0000000000E+00  -0.8141898210E-01  -0.8437978785E+00   0.2834315668E-01  -0.5844276114E-01   0.3823947378E-03   0.7754969264E-02
   0.1782171257E+01   0.1932792360E+01   0.3993664540E+00   0.4738817017E-02   0.5633770356E-02  -0.6335520011E-03   0.0000000000E+00   0.0000000000E+00   0.0000000000E+00  -0.1074265262E+00  -0.9041628510E+00   0.1155033403E-01  -0.3996341785E-01  -0.2979990488E-02   0.9519655974E-02
   0.2005498968E+01   0.1933136124E+01   0.3992273834E+00   0.5498967786E-02   0.6292003640E-02  -0.7726225969E-03   0.0000000000E+00   0.0000000000E+00   0.0000000000E+00  -0.1127848365E+00  -0.9356245391E+00   0.2324603471E-01  -0.2378858674E-01  -0.3781008169E-02   0.1024520130E-01
   0.8909046457E+00   0.1737730630E+01   0.3997326769E+00   0.2325336697E-02   0.5623710274E-02  -0.2673291220E-03   0.0000000000E+00   0.0000000000E+00   0.0000000000E+00  -0.1441917198E+00  -0.8599943296E+00  -0.3591527630E-01   0.6307631241E-01  -0.7295049051E-02   0.2188489178E-02
   0.1113750028E+01   0.1727790421E+01   0.3996509792E+00   0.3048467712E-02   0.6298371355E-02  -0.3490268239E-03   0.0000000000E+00   0.0000000000E+00   0.0000000000E+00  -0.1095497063E+00  -0.8861238167E+00   0.4172366403E-02   0.2745646992E-02   0.2218581741E-02   0.2901496634E-02
   0.1336852786E+01   0.1722751826E+01   0.3995803159E+00   0.3821845958E-02   0.6734105888E-02  -0.4196901480E-03   0.0000000000E+00   0.0000000000E+00   0.0000000000E+00  -0.1107159839E+00  -0.9232266718E+00  -0.6484589876E-02  -0.3059252606E-01   0.3003358521E-02   0.3545434689E-02
   0.1560096918E+01   0.1720723263E+01   0.3994927593E+00   0.4634077680E-02   0.7091513047E-02  -0.5072466981E-03   0.0000000000E+00   0.0000000000E+00   0.0000000000E+00  -0.9778966281E-01  -0.9377158691E+00  -0.2961487852E-03  -0.4457721948E-01   0.1397235337E-02   0.4409959366E-02
   0.1783331355E+01   0.1720287821E+01   0.3993748140E+00   0.5473455017E-02   0.7539530582E-02  -0.6251920173E-03   0.0000000000E+00   0.0000000000E+00   0.0000000000E+00  -0.1244303493E+00  -0.9899244291E+00  -0.2260656307E-01  -0.2417003924E-01  -0.1480854068E-02   0.5159914344E-02
   0.2006326270E+01   0.1720539569E+01   0.3992328084E+00   0.6326269936E-02   0.8259888728E-02  -0.7671975817E-03   0.0000000000E+00   0.0000000000E+00   0.0000000000E+00  -0.1068954311E+00  -0.9902684788E+00   0.5995639454E-02  -0.8175579017E-02  -0.2116151553E-02   0.5704323900E-02
   0.8936136448E+00   0.1527909648E+01   0.3997664942E+00   0.2649196809E-02   0.7350457537E-02  -0.2335118301E-03   0.0000000000E+00   0.0000000000E+00   0.0000000000E+00  -0.1923197731E+00  -0.9932409358E+00  -0.8753490875E-01   0.9816788441E-01  -0.7813088071E-02  -0.7542465417E-04
   0.1117303051E+01   0.1516637596E+01   0.3996937181E+00   0.3478440587E-02   0.8161096338E-02  -0.3062878593E-03   0.0000000000E+00   0.0000000000E+00   0.0000000000E+00  -0.9589218278E-01  -0.9525045747E+00   0.4793158950E-02   0.1230573431E-01   0.4169457445E-02   0.4569962833E-03
   0.1340525409E+01   0.1510970824E+01   0.3996266919E+00   0.4356169236E-02   0.8657213817E-02  -0.3733140694E-03   0.0000000000E+00   0.0000000000E+00   0.0000000000E+00  -0.9350865539E-01  -0.9787802924E+00  -0.7838093557E-02  -0.2415077857E-01   0.3584640551E-02   0.9395230315E-03
   0.1563289370E+01   0.1508637882E+01   0.3995382594E+00   0.5265800249E-02   0.9058811674E-02  -0.4617466395E-03   0.0000000000E+00   0.0000000000E+00   0.0000000000E+00  -0.7789499639E-01  -0.9824664121E+00  -0.1743490375E-02  -0.3815648100E-01   0.2325769504E-02   0.1379839663E-02
   0.1785541966E+01   0.1508080081E+01   0.3994212889E+00   0.6193356466E-02   0.9553511497E-02  -0.5787171028E-03   0.0000000000E+00   0.0000000000E+00   0.0000000000E+00  -0.9113370249E-01  -0.1010339731E+01  -0.1547462407E-01  -0.1705740342E-01  -0.4080354513E-03   0.1491428351E-02
   0.2007127171E+01   0.1508209533E+01   0.3992771672E+00   0.7127171045E-02   0.1031143275E-01  -0.7228388056E-03   0.0000000000E+00   0.0000000000E+00   0.0000000000E+00  -0.6871988084E-01  -0.9985256367E+00   0.1350375504E-01  -0.1322811837E-02  -0.1229026274E-02   0.1422327326E-02
   0.9014004077E+00   0.1315762016E+01   0.3998257302E+00   0.2994497716E-02   0.9294246213E-02  -0.1742758110E-03   0.0000000000E+00   0.0000000000E+00   0.0000000000E+00  -0.1524892160E+00  -0.1032002105E+01  -0.5750556575E-01   0.1208402439E+00  -0.6683862774E-02   0.9898146442E-03
   0.1126624260E+01   0.1304446596E+01   0.3997683060E+00   0.3940140107E-02   0.1019491640E-01  -0.2316999609E-03   0.0000000000E+00   0.0000000000E+00   0.0000000000E+00  -0.3444077428E-01  -0.9667212533E+00   0.4060273078E-01   0.1100209788E-01   0.6333647953E-02  -0.3653115859E-03
   0.1349251312E+01   0.1298992203E+01   0.3997061815E+00   0.4925532175E-02   0.1071517341E-01  -0.2938245032E-03   0.0000000000E+00   0.0000000000E+00   0.0000000000E+00  -0.6108017119E-01  -0.1013006554E+01  -0.5681102839E-02  -0.2453331357E-01   0.4084620412E-02  -0.1392806282E-02
   0.1570074875E+01   0.1296739352E+01   0.3996189257E+00   0.5930025000E-02   0.1113320159E-01  -0.3810803192E-03   0.0000000000E+00   0.0000000000E+00   0.0000000000E+00  -0.5336991636E-01  -0.1014965631E+01  -0.9770498727E-02  -0.4053287054E-01   0.3236012109E-02  -0.1753266581E-02
   0.1789580010E+01   0.1296181442E+01   0.3995052807E+00   0.6939429753E-02   0.1164186195E-01  -0.4947252631E-03   0.0000000000E+00   0.0000000000E+00   0.0000000000E+00  -0.5724879012E-01  -0.1021347180E+01  -0.1823868135E-01  -0.2055713255E-01   0.7577138939E-03  -0.2216391312E-02
   0.2007946035E+01   0.1296247064E+01   0.3993630571E+00   0.7946035306E-02   0.1241022445E-01  -0.6369489083E-03   0.0000000000E+00   0.0000000000E+00   0.0000000000E+00  -0.4619487019E-01  -0.1012517071E+01  -0.5551743271E-02  -0.6110953340E-02   0.1456233747E-04  -0.3455464101E-02
   0.9185628933E+00   0.1097548639E+01   0.3999115971E+00   0.3410522313E-02   0.1150372903E-01  -0.8840888102E-04   0.0000000000E+00   0.0000000000E+00   0.0000000000E+00  -0.3196851916E+00  -0.1267659236E+01  -0.2360489204E+00   0.1698344870E+00  -0.2434896823E-02  -0.9654372041E-02
   0.1145317970E+01   0.1089712594E+01   0.3998794488E+00   0.4476009984E-02   0.1240370437E-01  -0.1205571772E-03   0.0000000000E+00   0.0000000000E+00   0.0000000000E+00  -0.8279776820E-01  -0.1093271765E+01  -0.5165924071E-01   0.8003430094E-02   0.1013133792E-01  -0.7744307640E-02
   0.1365328214E+01   0.1086241472E+01   0.3998242708E+00   0.5575554429E-02   0.1289557174E-01  -0.1757351874E-03   0.0000000000E+00   0.0000000000E+00   0.0000000000E+00  -0.6724976869E-01  -0.1086016827E+01  -0.6127458018E-01  -0.3198547583E-01   0.6232279804E-02  -0.6808835401E-02
   0.1581704164E+01   0.1084815683E+01   0.3997392574E+00   0.6679324046E-02   0.1329440326E-01  -0.2607486018E-03   0.0000000000E+00   0.0000000000E+00   0.0000000000E+00  -0.2900538313E-01  -0.1047491580E+01  -0.3655047498E-01  -0.5609533408E-01   0.5656831620E-02  -0.5877977191E-02
   0.1795984343E+01   0.1084507020E+01   0.3996303904E+00   0.7773112831E-02   0.1378110024E-01  -0.3696155542E-03   0.0000000000E+00   0.0000000000E+00   0.0000000000E+00  -0.1354381612E-01  -0.1021279157E+01  -0.2820825730E-01  -0.3935223116E-01   0.3953548452E-02  -0.5814147278E-02
   0.2008854083E+01   0.1084629464E+01   0.3994967253E+00   0.8854083081E-02   0.1452474361E-01  -0.5032806640E-03   0.0000000000E+00   0.0000000000E+00   0.0000000000E+00   0.1165405609E-01  -0.9867817330E+00  -0.8322612400E-02  -0.2692666261E-01   0.4003585016E-02  -0.8255512957E-02
  -0.1800134652E+01  -0.6145894175E+00   0.6023656102E+00  -0.1330065155E-01   0.3531328347E-01   0.2365586245E-02   0.0000000000E+00   0.0000000000E+00   0.0000000000E+00   0.4710302784E-01  -0.1130223081E+01  -0.3192251402E-01  -0.6334079668E-01   0.3562937377E-02  -0.4970097000E-02
  -0.1807675443E+01  -0.4007205594E+00   0.6020294397E+00  -0.1383599323E-01   0.3285033255E-01   0.2029415705E-02   0.0000000000E+00   0.0000000000E+00   0.0000000000E+00   0.1145873466E+00  -0.1065265621E+01   0.2692220318E-01  -0.5637935450E-01   0.4943457246E-03   0.3001887480E-02
  -0.2015132072E+01  -0.3994172511E+00   0.6017866886E+00  -0.1513207167E-01   0.3270712489E-01   0.1786664553E-02   0.0000000000E+00   0.0000000000E+00   0.0000000000E+00   0.1949450844E+00  -0.9299338019E+00   0.6837766591E-01  -0.3100752044E-01   0.4259678759E-02  -0.3275673482E-02
  -0.2014634653E+01  -0.6129096087E+00   0.6021405207E+00  -0.1463465298E-01   0.3503126527E-01   0.2140496667E-02   0.0000000000E+00   0.0000000000E+00   0.0000000000E+00   0.1128490388E+00  -0.1029497032E+01   0.1079174840E-01  -0.4780067167E-01   0.4322774093E-02  -0.1134381494E-01
  -0.1814347092E+01  -0.1906111281E+00   0.6017783576E+00  -0.1419980232E-01   0.3044074388E-01   0.1778333562E-02   0.0000000000E+00   0.0000000000E+00   0.0000000000E+00  -0.2211283210E-01  -0.1168440982E+01  -0.4854645880E-01  -0.4387426906E-01  -0.2107186431E-02   0.7934277911E-02
  -0.2015365299E+01  -0.1885066313E+00   0.6015165197E+00  -0.1536529855E-01   0.3047111767E-01   0.1516495723E-02   0.0000000000E+00   0.0000000000E+00   0.0000000000E+00   0.1393778450E+00  -0.9407484134E+00   0.5411501446E-01  -0.1944274127E-01   0.3547883314E-02   0.3833320632E-02
  -0.1819269335E+01   0.1581152609E-01   0.6015447967E+00  -0.1420131520E-01   0.2808287409E-01   0.1544772702E-02   0.0000000000E+00   0.0000000000E+00   0.0000000000E+00  -0.8002500536E-01  -0.1204154617E+01  -0.6868311670E-01  -0.2566236352E-02  -0.3673736596E-02   0.2431876331E-02
  -0.2015280291E+01   0.1694925377E-01   0.6012821303E+00  -0.1528029062E-01   0.2833156977E-01   0.1282106324E-02   0.0000000000E+00   0.0000000000E+00   0.0000000000E+00   0.1395279115E+00  -0.9145881942E+00   0.8475079271E-01  -0.4543409552E-03   0.2078483555E-02   0.2969309931E-02
  -0.1583685079E+01  -0.6182058215E+00   0.6025558964E+00  -0.1193073919E-01   0.3545304548E-01   0.2555872362E-02   0.0000000000E+00   0.0000000000E+00   0.0000000000E+00   0.3871556767E-01  -0.1169407385E+01  -0.2979481118E-01  -0.6610780281E-01   0.7028627531E-03  -0.5032571981E-02
  -0.1598964025E+01  -0.4028698814E+00   0.6022167893E+00  -0.1250379519E-01   0.3287762261E-01   0.2216765348E-02   0.0000000000E+00   0.0000000000E+00   0.0000000000E+00   0.1497997268E+00  -0.1072072036E+01   0.7375563281E-01  -0.7329366557E-01  -0.4889343132E-02   0.4869135021E-02
  -0.1613956140E+01  -0.1911009751E+00   0.6019742388E+00  -0.1302973970E-01   0.3033555491E-01   0.1974214774E-02   0.0000000000E+00   0.0000000000E+00   0.0000000000E+00   0.9369947017E-02  -0.1178153653E+01   0.1390011739E-01  -0.6216883941E-01  -0.8863792702E-02   0.1011681977E-01
  -0.1627423945E+01   0.1917773826E-01   0.6017358735E+00  -0.1313525497E-01   0.2781034926E-01   0.1735849537E-02   0.0000000000E+00   0.0000000000E+00   0.0000000000E+00  -0.3722639009E-01  -0.1204400377E+01   0.1203599998E-01   0.3351258529E-02  -0.1074917863E-01   0.1881528610E-02
  -0.1362743016E+01  -0.6249021724E+00   0.6027216098E+00  -0.1049828592E-01   0.3565646860E-01   0.2721585783E-02   0.0000000000E+00   0.0000000000E+00   0.0000000000E+00   0.1672442362E-01  -0.1230163595E+01  -0.5219245825E-01  -0.5011793134E-01   0.2949203550E-03  -0.5228459512E-02
  -0.1388841671E+01  -0.4056843473E+00   0.6023705180E+00  -0.1112060109E-01   0.3293824671E-01   0.2370493955E-02   0.0000000000E+00   0.0000000000E+00   0.0000000000E+00   0.1519406514E+00  -0.1122466504E+01   0.7145520706E-01  -0.8059309525E-01  -0.6110274282E-02   0.7315252695E-02
  -0.1414365925E+01  -0.1924384387E+00   0.6021382528E+00  -0.1184932481E-01   0.3027175333E-01   0.2138228827E-02   0.0000000000E+00   0.0000000000E+00   0.0000000000E+00  -0.7252040434E-01  -0.1303221815E+01  -0.4687908790E-01  -0.8054512846E-01  -0.1085471724E-01   0.1336962714E-01
  -0.1434699850E+01   0.1744183999E-01   0.6019030550E+00  -0.1206381972E-01   0.2764031799E-01   0.1903031007E-02   0.0000000000E+00   0.0000000000E+00   0.0000000000E+00  -0.1221956064E+00  -0.1329895450E+01  -0.4194948307E-01   0.2516537359E-02  -0.1250202007E-01   0.2109956258E-02
  -0.1130864320E+01  -0.6353140496E+00   0.6028835517E+00  -0.8963520354E-02   0.3614097637E-01   0.2883527651E-02   0.0000000000E+00   0.0000000000E+00   0.0000000000E+00   0.9418038439E-01  -0.1154887146E+01   0.5417761368E-01   0.7739685386E-01   0.2710825360E-02  -0.6586224904E-02
  -0.1178756128E+01  -0.4077827415E+00   0.6025182983E+00  -0.9699708042E-02   0.3314434646E-01   0.2518274273E-02   0.0000000000E+00   0.0000000000E+00   0.0000000000E+00   0.2261878425E+00  -0.1056459827E+01   0.1830050095E+00  -0.4652107515E-02   0.3952064407E-02   0.1440583279E-01
  -0.1219254846E+01  -0.1923302816E+00   0.6022937912E+00  -0.1068293576E-01   0.3027822537E-01   0.2293767176E-02   0.0000000000E+00   0.0000000000E+00   0.0000000000E+00   0.6895214348E-01  -0.1191697028E+01   0.1400706016E+00  -0.5256483330E-01   0.8867884992E-03   0.1858923308E-01
  -0.1246240071E+01   0.1578635138E-01   0.6020608777E+00  -0.1100354114E-01   0.2750915438E-01   0.2060853714E-02   0.0000000000E+00   0.0000000000E+00   0.0000000000E+00  -0.2034361296E-02  -0.1260570581E+01   0.1176182904E+00   0.2575104981E-01  -0.2379658651E-02   0.2475584404E-02
  -0.8658895637E+00  -0.6489977052E+00   0.6030306455E+00  -0.7300867653E-02   0.3795858079E-01   0.3030621523E-02   0.0000000000E+00   0.0000000000E+00   0.0000000000E+00   0.1666627644E-01  -0.1197155357E+01   0.2411942699E-01   0.2298088182E+00  -0.1240870275E-01   0.1902166934E-01
  -0.9762758654E+00  -0.3990966528E+00   0.6027549765E+00  -0.8455101376E-02   0.3395082018E-01   0.2754952528E-02   0.0000000000E+00   0.0000000000E+00   0.0000000000E+00  -0.4631601829E-01  -0.1363729039E+01   0.7030453130E-01   0.8260484924E-01   0.3075344313E-01   0.3754959671E-01
  -0.1037104681E+01  -0.1845068258E+00   0.6025246870E+00  -0.9626340961E-02   0.3056714721E-01   0.2524663040E-02   0.0000000000E+00   0.0000000000E+00   0.0000000000E+00  -0.3233525887E+00  -0.1729622061E+01  -0.1514146422E+00  -0.1869145281E-01   0.2215364400E-01   0.2241112785E-01
  -0.1067708316E+01   0.1524275050E-01   0.6022889965E+00  -0.9975736371E-02   0.2750405950E-01   0.2288972521E-02   0.0000000000E+00   0.0000000000E+00   0.0000000000E+00  -0.4016801834E+00  -0.1797239862E+01  -0.1886076162E+00   0.1744733726E-01   0.2010530593E-01   0.1543874572E-02
  -0.8830738155E+00  -0.1677784240E+00   0.6027983928E+00  -0.8691796493E-02   0.3064086398E-01   0.2798368759E-02   0.0000000000E+00   0.0000000000E+00   0.0000000000E+00   0.4515118890E+00  -0.1167329957E+01   0.7727556514E+00   0.9066511648E-02   0.5438070789E-01   0.3082872828E-01
  -0.9111954165E+00   0.2211667473E-01   0.6025700930E+00  -0.9009499474E-02   0.2716921673E-01   0.2570069026E-02   0.0000000000E+00   0.0000000000E+00   0.0000000000E+00   0.9795645368E-01  -0.1514058180E+01   0.4512372662E+00  -0.1653559151E-01   0.5258034682E-01   0.5315455793E-02
  -0.7395431889E+00  -0.1341719124E+00   0.6031655152E+00  -0.7855821855E-02   0.3055075357E-01   0.3165491208E-02   0.0000000000E+00   0.0000000000E+00   0.0000000000E+00  -0.2457383886E+01  -0.4310336857E+01  -0.1853400231E+01   0.1054216026E+00   0.7896298989E-01   0.5140541881E-01
  -0.7580102605E+00   0.2689313552E-01   0.6029755311E+00  -0.8010260451E-02   0.2689313552E-01   0.2975507079E-02   0.0000000000E+00   0.0000000000E+00   0.0000000000E+00  -0.1992387904E+01  -0.3900848871E+01  -0.1390806456E+01   0.6359293419E-02   0.8261316750E-01   0.1324027537E-03
  -0.8228849387E+00  -0.3597605079E+00   0.6029985875E+00  -0.7682106699E-02   0.3431887910E-01   0.2998563469E-02   0.0000000000E+00   0.0000000000E+00   0.0000000000E+00  -0.4937956508E+00  -0.1967055312E+01  -0.1880742935E+00   0.1414495084E+00   0.2892883338E-01   0.6495313707E-01
  -0.6838447572E+00  -0.2889852052E+00   0.6031929203E+00  -0.7074904237E-02   0.3425239285E-01   0.3192896337E-02   0.0000000000E+00   0.0000000000E+00   0.0000000000E+00  -0.1568530676E+01  -0.3267924598E+01  -0.1092355680E+01   0.2166043037E+00   0.5554611980E-02   0.1037539569E+00
  -0.7201608855E+00  -0.5263677607E+00   0.6029796950E+00  -0.6682856514E-02   0.3781273227E-01   0.2979670989E-02   0.0000000000E+00   0.0000000000E+00   0.0000000000E+00  -0.6035729431E-01  -0.1380637482E+01   0.1500425719E-01   0.2916570159E+00  -0.3759936997E-01   0.8452975647E-01
  -0.5946004743E+00  -0.4271211888E+00   0.6029889056E+00  -0.6062185290E-02   0.3776875522E-01   0.2988881646E-02   0.0000000000E+00   0.0000000000E+00   0.0000000000E+00  -0.6341566679E+00  -0.2216784789E+01  -0.5318105508E+00   0.3273052100E+00  -0.5521538090E-01   0.1153833336E+00
  -0.5674652472E+00  -0.6548284797E+00   0.6028485801E+00  -0.5417289190E-02   0.4116494329E-01   0.2848556129E-02   0.0000000000E+00   0.0000000000E+00   0.0000000000E+00   0.8853183431E+00  -0.2924894826E+00   0.6522537856E+00   0.3589192190E+00  -0.6091441369E-01   0.4365695104E-01
  -0.4744633134E+00  -0.5437117257E+00   0.6027277691E+00  -0.4877835416E-02   0.4108690834E-01   0.2727745138E-02   0.0000000000E+00   0.0000000000E+00   0.0000000000E+00  -0.4463043240E+00  -0.1769273730E+01  -0.6782854309E+00   0.4081939023E+00  -0.7590693461E-01   0.8511076375E-01
  -0.3793335330E+00  -0.7480170437E+00   0.6027936236E+00  -0.4068858971E-02   0.4422858231E-01   0.2793599633E-02   0.0000000000E+00   0.0000000000E+00   0.0000000000E+00   0.6197124754E+00  -0.3603276422E+00   0.2425630987E+00   0.3583977943E+00  -0.5266303296E-01   0.4179928870E-02
  -0.3276339335E+00  -0.6326001646E+00   0.6025570304E+00  -0.3732041533E-02   0.4385205437E-01   0.2557006370E-02   0.0000000000E+00   0.0000000000E+00   0.0000000000E+00   0.1283547247E+00  -0.8661632909E+00  -0.2706037110E+00   0.3695398641E+00  -0.7121331912E-01   0.2383455660E-01
  -0.1863038717E+00  -0.8079448648E+00   0.6027640076E+00  -0.2865942747E-02   0.4623171623E-01   0.2763983645E-02   0.0000000000E+00   0.0000000000E+00   0.0000000000E+00   0.7525711802E+00  -0.3815045684E-01   0.3173803555E+00   0.2143240590E+00  -0.3150663468E-01  -0.6888845767E-02
  -0.1638818073E+00  -0.6868164860E+00   0.6024864661E+00  -0.2674146271E-02   0.4565337098E-01   0.2486442055E-02   0.0000000000E+00   0.0000000000E+00   0.0000000000E+00   0.7108042222E-01  -0.6994245805E+00  -0.3825897803E+00   0.1984047699E+00  -0.3714098232E-01  -0.4085305065E-02
   0.7327682865E-02  -0.8339606455E+00   0.6027785361E+00  -0.1765987135E-02   0.4673076351E-01   0.2778512133E-02   0.0000000000E+00   0.0000000000E+00   0.0000000000E+00   0.8218169044E+00   0.1056951836E+00   0.3847470786E+00  -0.8515707126E-02   0.2438596764E-02  -0.7757768301E-02
   0.4289568016E-02  -0.7039100376E+00   0.6024803069E+00  -0.1693025984E-02   0.4606612038E-01   0.2480282886E-02   0.0000000000E+00   0.0000000000E+00   0.0000000000E+00  -0.1288733934E+00  -0.8381863969E+00  -0.5830646478E+00  -0.5431893675E-01  -0.2425405746E-03  -0.5351450664E-02
  -0.6221926946E+00  -0.7904218660E+00   0.6030938470E+00  -0.5648090628E-02   0.4193124902E-01   0.3093823045E-02   0.0000000000E+00   0.0000000000E+00   0.0000000000E+00   0.2548626433E+00  -0.8269187826E+00   0.7736581987E-01   0.3362034703E+00  -0.4730002992E-01   0.5645370381E-02
  -0.4084854589E+00  -0.8816292661E+00   0.6031050765E+00  -0.4288600906E-02   0.4500945593E-01   0.3105052530E-02   0.0000000000E+00   0.0000000000E+00   0.0000000000E+00   0.2372237045E+00  -0.6967486211E+00  -0.6155453406E-01   0.3271209015E+00  -0.3991991952E-01  -0.3086190818E-02
  -0.2024736239E+00  -0.9412799105E+00   0.6031054948E+00  -0.3127096946E-02   0.4694775453E-01   0.3105470802E-02   0.0000000000E+00   0.0000000000E+00   0.0000000000E+00   0.4229179167E+00  -0.3451162371E+00   0.6888090797E-01   0.1983385886E+00  -0.2544791442E-01  -0.6802580022E-02
   0.1654100867E-02  -0.9723099223E+00   0.6031415632E+00  -0.2072463133E-02   0.4746081772E-01   0.3141539185E-02   0.0000000000E+00   0.0000000000E+00   0.0000000000E+00   0.3531137117E+00  -0.3529456730E+00  -0.5755156908E-02   0.7019523117E-02   0.1860412757E-02  -0.5576424600E-02
  -0.2132926395E+00  -0.1098150829E+01   0.6034985070E+00  -0.3310363529E-02   0.4784479100E-01   0.3498483016E-02   0.0000000000E+00   0.0000000000E+00   0.0000000000E+00   0.3529899030E+00  -0.3901526688E+00   0.7772275901E-01   0.1607854680E+00  -0.1872898006E-01  -0.8969142412E-03
  -0.2410691781E-02  -0.1131940872E+01   0.6035519498E+00  -0.2300758781E-02   0.4833849776E-01   0.3551925825E-02   0.0000000000E+00   0.0000000000E+00   0.0000000000E+00   0.3217614511E+00  -0.3775657386E+00   0.3838121160E-01  -0.1084557123E-01   0.9371444593E-03   0.3347141639E-02
  -0.2198561514E+00  -0.1269735155E+01   0.6039271350E+00  -0.3473335436E-02   0.4889613465E-01   0.3927110955E-02   0.0000000000E+00   0.0000000000E+00   0.0000000000E+00   0.2536053951E+00  -0.4901403505E+00   0.4155914509E-01   0.1391517193E+00  -0.1512488241E-01   0.1393534363E-02
  -0.4965993592E-02  -0.1303597391E+01   0.6039879528E+00  -0.2505960592E-02   0.4933732944E-01   0.3987928821E-02   0.0000000000E+00   0.0000000000E+00   0.0000000000E+00   0.2210077597E+00  -0.4849522487E+00  -0.6334021195E-03  -0.6105131067E-02  -0.9268082510E-04   0.7203726621E-02
  -0.2235685147E+00  -0.1449067503E+01   0.6043809193E+00  -0.3648371679E-02   0.5006787708E-01   0.4380895281E-02   0.0000000000E+00   0.0000000000E+00   0.0000000000E+00   0.2010277962E+00  -0.5496755400E+00   0.4411325116E-01   0.1200127327E+00  -0.1284639607E-01   0.2771500503E-02
  -0.6517180479E-02  -0.1481225131E+01   0.6044451770E+00  -0.2719824479E-02   0.5043852912E-01   0.4445153038E-02   0.0000000000E+00   0.0000000000E+00   0.0000000000E+00   0.1403378116E+00  -0.5782018758E+00  -0.2634321183E-01  -0.2509001799E-02  -0.1546030100E-02   0.9583247050E-02
  -0.2256753926E+00  -0.1632241963E+01   0.6048549775E+00  -0.3850388614E-02   0.5133557675E-01   0.4854953530E-02   0.0000000000E+00   0.0000000000E+00   0.0000000000E+00   0.1456920639E+00  -0.6150414054E+00   0.3810632989E-01   0.1041751389E+00  -0.1155876522E-01   0.3610276799E-02
  -0.7548827935E-02  -0.1661575868E+01   0.6049189124E+00  -0.2956226935E-02   0.5162935158E-01   0.4918888387E-02   0.0000000000E+00   0.0000000000E+00   0.0000000000E+00   0.6638901717E-01  -0.6678383357E+00  -0.5186484606E-01   0.6830279392E-03  -0.3048544050E-02   0.1176081730E-01
  -0.2269565493E+00  -0.1817275611E+01   0.6053454921E+00  -0.4071983331E-02   0.5268087920E-01   0.5345468058E-02   0.0000000000E+00   0.0000000000E+00   0.0000000000E+00   0.1012063091E+00  -0.6695603940E+00   0.3653389473E-01   0.8845867087E-01  -0.1071464198E-01   0.4704649351E-02
  -0.8325656239E-02  -0.1843136382E+01   0.6054077897E+00  -0.3204537239E-02   0.5289880807E-01   0.5407765653E-02   0.0000000000E+00   0.0000000000E+00   0.0000000000E+00  -0.8893465306E-02  -0.7589812035E+00  -0.8429967444E-01  -0.9946780187E-03  -0.4745248581E-02   0.1423606920E-01
  -0.2278354552E+00  -0.2003187625E+01   0.6058509954E+00  -0.4303240225E-02   0.5409053535E-01   0.5850971426E-02   0.0000000000E+00   0.0000000000E+00   0.0000000000E+00   0.8741990309E-01  -0.6960184431E+00   0.5636830307E-01   0.7808489517E-01  -0.9855236343E-02   0.5267739813E-02
  -0.8971124635E-02  -0.2025198709E+01   0.6059124224E+00  -0.3453649635E-02   0.5423807150E-01   0.5912398406E-02   0.0000000000E+00   0.0000000000E+00   0.0000000000E+00  -0.9730473817E-01  -0.8630602843E+00  -0.1351205935E+00  -0.2283420925E-02  -0.6641906037E-02   0.1742664985E-01
  -0.2291826559E+00  -0.2188492364E+01   0.6063727418E+00  -0.4561225890E-02   0.5554764563E-01   0.6372717815E-02   0.0000000000E+00   0.0000000000E+00   0.0000000000E+00   0.6682143937E-01  -0.7275846520E+00   0.6553390282E-01   0.7161439271E-01  -0.9238860938E-02   0.5248307852E-02
  -0.1210257205E-01  -0.2203333521E+01   0.6064220336E+00  -0.3728268047E-02   0.5561217871E-01   0.6422009594E-02   0.0000000000E+00   0.0000000000E+00   0.0000000000E+00  -0.1935393383E+00  -0.9749673208E+00  -0.2004880783E+00  -0.5190418680E-02  -0.9215270880E-02   0.2138458912E-01
  -0.2301582056E+00  -0.2374864370E+01   0.6069164459E+00  -0.4822011615E-02   0.5705759030E-01   0.6916421926E-02   0.0000000000E+00   0.0000000000E+00   0.0000000000E+00   0.6665210672E-01  -0.7352213942E+00   0.9101583744E-01   0.6539616095E-01  -0.8015427513E-02   0.4800459745E-02
  -0.1342357994E-01  -0.2385744214E+01   0.6069628081E+00  -0.4002722935E-02   0.5706918584E-01   0.6962784145E-02   0.0000000000E+00   0.0000000000E+00   0.0000000000E+00  -0.2812219074E+00  -0.1074193380E+01  -0.2612725803E+00  -0.1487416268E-01  -0.1187966128E-01   0.2596873586E-01
  -0.2312356038E+00  -0.2562029519E+01   0.6074830662E+00  -0.5078593807E-02   0.5860814119E-01   0.7483042244E-02   0.0000000000E+00   0.0000000000E+00   0.0000000000E+00   0.3640792359E-01  -0.7706070337E+00   0.8097522799E-01   0.5975039124E-01  -0.5672396313E-02   0.4269924495E-02
  -0.1466885373E-01  -0.2569347427E+01   0.6075313821E+00  -0.4270934730E-02   0.5857606288E-01   0.7531358120E-02   0.0000000000E+00   0.0000000000E+00   0.0000000000E+00  -0.4275675619E+00  -0.1226087046E+01  -0.3847452107E+00  -0.3239365072E-01  -0.1388265682E-01   0.3189251858E-01
  -0.2326792063E+00  -0.2749826578E+01   0.6080785643E+00  -0.5298796344E-02   0.6018767222E-01   0.8078540310E-02   0.0000000000E+00   0.0000000000E+00   0.0000000000E+00   0.1169610983E+00  -0.6884222453E+00   0.1846855719E+00   0.4852773441E-01  -0.8198506096E-03  -0.2727288598E-02
  -0.1632401272E-01  -0.2753579738E+01   0.6081345638E+00  -0.4516850715E-02   0.6010854205E-01   0.8134539844E-02   0.0000000000E+00   0.0000000000E+00   0.0000000000E+00  -0.3095226624E+00  -0.1098145647E+01  -0.2446128863E+00  -0.4979518057E-01  -0.1347525994E-01   0.3132614136E-01
  -0.2324213963E+00  -0.2938213895E+01   0.6087371113E+00  -0.5450664316E-02   0.6178610498E-01   0.8737087338E-02   0.0000000000E+00   0.0000000000E+00   0.0000000000E+00  -0.2749726804E+00  -0.1044871011E+01  -0.1306193857E+00   0.3977103275E-01   0.1034735935E-01  -0.8832307914E-02
  -0.1620679603E-01  -0.2938368281E+01   0.6088108349E+00  -0.4786169028E-02   0.6163171905E-01   0.8810810887E-02   0.0000000000E+00   0.0000000000E+00   0.0000000000E+00  -0.5446659151E+00  -0.1295886974E+01  -0.4154610936E+00  -0.6818142628E-01  -0.1068828417E-01   0.3147809857E-01
  -0.4264161263E+00  -0.1045405969E+01   0.6034785957E+00  -0.4412678337E-02   0.4612566122E-01   0.3478571701E-02   0.0000000000E+00   0.0000000000E+00   0.0000000000E+00   0.3223933074E+00  -0.5609895225E+00   0.9497777518E-01   0.2827064144E+00  -0.3111920649E-01  -0.1968278986E-02
  -0.4364183592E+00  -0.1224020077E+01   0.6038994579E+00  -0.4506354235E-02   0.4743843273E-01   0.3899433920E-02   0.0000000000E+00   0.0000000000E+00   0.0000000000E+00   0.1876118133E+00  -0.6703061111E+00   0.2548170121E-01   0.2414822642E+00  -0.2665859160E-01  -0.3012088449E-02
  -0.4417837003E+00  -0.1409281167E+01   0.6043422596E+00  -0.4624400331E-02   0.4886504291E-01   0.4342235586E-02   0.0000000000E+00   0.0000000000E+00   0.0000000000E+00   0.1448650937E+00  -0.6994945313E+00   0.3369321094E-01   0.2043368008E+00  -0.2116059269E-01  -0.1791507447E-02
  -0.4447398365E+00  -0.1597666779E+01   0.6048033902E+00  -0.4779267454E-02   0.5036040082E-01   0.4803366187E-02   0.0000000000E+00   0.0000000000E+00   0.0000000000E+00   0.7932627221E-01  -0.7572334658E+00   0.1036286726E-01   0.1726728245E+00  -0.1682819548E-01  -0.1369841698E-02
  -0.4465121614E+00  -0.1787633670E+01   0.6052812310E+00  -0.4965393355E-02   0.5190156996E-01   0.5281207029E-02   0.0000000000E+00   0.0000000000E+00   0.0000000000E+00   0.2976504426E-01  -0.8018751436E+00  -0.4165079507E-02   0.1459371476E+00  -0.1338272040E-01  -0.7181056194E-03
  -0.4477205838E+00  -0.1978432174E+01   0.6057753533E+00  -0.5173679764E-02   0.5347729556E-01   0.5775329308E-02   0.0000000000E+00   0.0000000000E+00   0.0000000000E+00  -0.2772126767E-02  -0.8336927157E+00  -0.9485211730E-02   0.1262805909E+00  -0.1089483900E-01  -0.7699687932E-03
  -0.4488402753E+00  -0.2169433000E+01   0.6062886537E+00  -0.5411759269E-02   0.5508101042E-01   0.6288629694E-02   0.0000000000E+00   0.0000000000E+00   0.0000000000E+00  -0.4197462585E-01  -0.8727725699E+00  -0.2389669270E-01   0.1110408708E+00  -0.8946424333E-02  -0.1233371578E-02
  -0.4497946019E+00  -0.2360902864E+01   0.6068209715E+00  -0.5658935924E-02   0.5671159584E-01   0.6820947522E-02   0.0000000000E+00   0.0000000000E+00   0.0000000000E+00  -0.5151487530E-01  -0.8827948975E+00  -0.1317536948E-01   0.9593467117E-01  -0.6822636136E-02  -0.2077403077E-02
  -0.4507787839E+00  -0.2552889961E+01   0.6073725974E+00  -0.5905569913E-02   0.5836615892E-01   0.7372573378E-02   0.0000000000E+00   0.0000000000E+00   0.0000000000E+00  -0.1066476178E+00  -0.9387074237E+00  -0.5236357272E-01   0.8159085424E-01  -0.3890177058E-02  -0.2432518535E-02
  -0.4519158828E+00  -0.2745372579E+01   0.6079439278E+00  -0.6110392850E-02   0.6003828077E-01   0.7943903816E-02   0.0000000000E+00   0.0000000000E+00   0.0000000000E+00   0.4070601809E-02  -0.8250792910E+00   0.7232237734E-01   0.4833705298E-01   0.1527050067E-02  -0.7559502522E-02
  -0.4518393550E+00  -0.2938281894E+01   0.6085643362E+00  -0.6158111028E-02   0.6171810606E-01   0.8564312154E-02   0.0000000000E+00   0.0000000000E+00   0.0000000000E+00  -0.2097585429E+00  -0.1011772034E+01  -0.8765993817E-01   0.1660897006E-01   0.1566556663E-01  -0.1282647090E-01
  -0.6458850493E+00  -0.9770733919E+00   0.6034671527E+00  -0.5681752293E-02   0.4354397811E-01   0.3467128727E-02   0.0000000000E+00   0.0000000000E+00   0.0000000000E+00   0.2542978790E+00  -0.7909100996E+00   0.1188440557E+00   0.2702634335E+00  -0.3698640791E-01  -0.3719164161E-02
  -0.6567556346E+00  -0.1171178143E+01   0.6038897255E+00  -0.5647071594E-02   0.4534168679E-01   0.3889701526E-02   0.0000000000E+00   0.0000000000E+00   0.0000000000E+00   0.1435819896E-01  -0.9771234230E+00  -0.5555994420E-01   0.2253201154E+00  -0.2557460697E-01  -0.5784693636E-02
  -0.6621227792E+00  -0.1366131748E+01   0.6043114685E+00  -0.5678051166E-02   0.4717544187E-01   0.4311444513E-02   0.0000000000E+00   0.0000000000E+00   0.0000000000E+00   0.2039179017E-01  -0.9423197430E+00  -0.2065188109E-01   0.1983260075E+00  -0.1795353852E-01  -0.3059101865E-02
  -0.6651047711E+00  -0.1561370601E+01   0.6047476024E+00  -0.5767727052E-02   0.4899573926E-01   0.4747578352E-02   0.0000000000E+00   0.0000000000E+00   0.0000000000E+00  -0.1940348305E-01  -0.9501831623E+00  -0.3584983695E-01   0.1740370412E+00  -0.1293274789E-01  -0.2973944513E-02
  -0.6670321137E+00  -0.1757039437E+01   0.6052009202E+00  -0.5906215669E-02   0.5079221348E-01   0.5200896155E-02   0.0000000000E+00   0.0000000000E+00   0.0000000000E+00  -0.3367529736E-01  -0.9386386771E+00  -0.3192388814E-01   0.1560429583E+00  -0.9049675366E-02  -0.2500413777E-02
  -0.6684654764E+00  -0.1953153577E+01   0.6056738944E+00  -0.6081800409E-02   0.5256608266E-01   0.5673870449E-02   0.0000000000E+00   0.0000000000E+00   0.0000000000E+00  -0.4870978678E-01  -0.9336196187E+00  -0.3266989917E-01   0.1445689067E+00  -0.5695835464E-02  -0.3071655580E-02
  -0.6697023803E+00  -0.2149564907E+01   0.6061694774E+00  -0.6293385279E-02   0.5432327278E-01   0.6169453437E-02   0.0000000000E+00   0.0000000000E+00   0.0000000000E+00  -0.8040922629E-01  -0.9497710951E+00  -0.4999116888E-01   0.1396512478E+00  -0.2086266560E-02  -0.4075088088E-02
  -0.6707963238E+00  -0.2346305340E+01   0.6066863023E+00  -0.6523717819E-02   0.5607179027E-01   0.6686278271E-02   0.0000000000E+00   0.0000000000E+00   0.0000000000E+00  -0.1114974196E+00  -0.9705680175E+00  -0.6854644703E-01   0.1389711851E+00   0.2296847884E-02  -0.5320702843E-02
  -0.6718298687E+00  -0.2543419235E+01   0.6072231825E+00  -0.6761063710E-02   0.5782068453E-01   0.7223158535E-02   0.0000000000E+00   0.0000000000E+00   0.0000000000E+00  -0.1658863656E+00  -0.1020263960E+01  -0.1128667938E+00   0.1458686816E+00   0.7937608762E-02  -0.6209239765E-02
  -0.6728229009E+00  -0.2740904695E+01   0.6077759073E+00  -0.6960578885E-02   0.5957543497E-01   0.7775883279E-02   0.0000000000E+00   0.0000000000E+00   0.0000000000E+00  -0.1595616636E+00  -0.1011587178E+01  -0.9962976246E-01   0.1325207103E+00   0.1471492873E-01  -0.8054052558E-02
  -0.6729299873E+00  -0.2938664687E+01   0.6083504065E+00  -0.6953463277E-02   0.6133531294E-01   0.8350382542E-02   0.0000000000E+00   0.0000000000E+00   0.0000000000E+00  -0.2516146081E+00  -0.1096507793E+01  -0.1779517506E+00   0.1196416131E+00   0.3078500406E-01  -0.9323010991E-02
  -0.8778124904E+00  -0.9018557279E+00   0.6034382776E+00  -0.7102534353E-02   0.4092935611E-01   0.3438253603E-02   0.0000000000E+00   0.0000000000E+00   0.0000000000E+00  -0.1899079925E+00  -0.1354239927E+01  -0.1954701467E+00   0.1983591816E+00  -0.2159264322E-01  -0.2052798640E-02
  -0.8825745600E+00  -0.1118250928E+01   0.6038279239E+00  -0.6881655989E-02   0.4335324244E-01   0.3827899944E-02   0.0000000000E+00   0.0000000000E+00   0.0000000000E+00   0.4215416283E-01  -0.1048724687E+01   0.4780895448E-01   0.1742299258E+00  -0.1390269234E-01  -0.6421678898E-03
  -0.8849798842E+00  -0.1323543270E+01   0.6042263596E+00  -0.6806831174E-02   0.4557040952E-01   0.4226335581E-02   0.0000000000E+00   0.0000000000E+00   0.0000000000E+00   0.3376395920E-01  -0.1015925556E+01   0.4145249957E-01   0.1667885431E+00  -0.1192233487E-01  -0.2440511479E-02
  -0.8867610232E+00  -0.1525423540E+01   0.6046417218E+00  -0.6818308196E-02   0.4766379021E-01   0.4641697755E-02   0.0000000000E+00   0.0000000000E+00   0.0000000000E+00   0.4339547237E-01  -0.9584519640E+00   0.5923373210E-01   0.1505813091E+00  -0.9364426178E-02  -0.2178520255E-02
  -0.8883476903E+00  -0.1726650575E+01   0.6050762872E+00  -0.6899302271E-02   0.4967083511E-01   0.5076263189E-02   0.0000000000E+00   0.0000000000E+00   0.0000000000E+00   0.3478165046E-01  -0.9268934858E+00   0.5571841087E-01   0.1376048545E+00  -0.7541904409E-02  -0.2099042376E-02
  -0.8897822457E+00  -0.1928054058E+01   0.6055297580E+00  -0.7032509748E-02   0.5160597167E-01   0.5529733988E-02   0.0000000000E+00   0.0000000000E+00   0.0000000000E+00   0.4159415108E-01  -0.8833983880E+00   0.6500963804E-01   0.1257916597E+00  -0.5737982853E-02  -0.2219879597E-02
  -0.8911082104E+00  -0.2129739449E+01   0.6060020873E+00  -0.7210309432E-02   0.5347474050E-01   0.6002063268E-02   0.0000000000E+00   0.0000000000E+00   0.0000000000E+00   0.5598444143E-01  -0.8353959952E+00   0.7992923962E-01   0.1166096806E+00  -0.3478809323E-02  -0.2723676691E-02
  -0.8923503689E+00  -0.2331684280E+01   0.6064906310E+00  -0.7418148891E-02   0.5527956049E-01   0.6490606969E-02   0.0000000000E+00   0.0000000000E+00   0.0000000000E+00   0.8893609452E-01  -0.7724314313E+00   0.1094492779E+00   0.1086593296E+00  -0.2764951171E-03  -0.3382986731E-02
  -0.8934867125E+00  -0.2533927534E+01   0.6069941222E+00  -0.7644508477E-02   0.5702533557E-01   0.6994098217E-02   0.0000000000E+00   0.0000000000E+00   0.0000000000E+00   0.1339228934E+00  -0.7030249205E+00   0.1463899902E+00   0.1055634641E+00   0.4632964534E-02  -0.4766540071E-02
  -0.8944453117E+00  -0.2736547525E+01   0.6075116383E+00  -0.7846903716E-02   0.5872244453E-01   0.7511614330E-02   0.0000000000E+00   0.0000000000E+00   0.0000000000E+00   0.1554300762E+00  -0.6666692896E+00   0.1546316751E+00   0.8321309328E-01   0.1226833093E-01  -0.5321787039E-02
  -0.8949570154E+00  -0.2939608033E+01   0.6080318889E+00  -0.7861027386E-02   0.6039196689E-01   0.8031864931E-02   0.0000000000E+00   0.0000000000E+00   0.0000000000E+00   0.1919013287E+00  -0.6407998473E+00   0.1533455637E+00   0.6353746195E-01   0.2788375320E-01  -0.4760506224E-02
  -0.1117198734E+01  -0.2732723946E+01   0.6073521785E+00  -0.8778124360E-02   0.5869317370E-01   0.7352154504E-02   0.0000000000E+00   0.0000000000E+00   0.0000000000E+00  -0.1141911444E+00  -0.9918206264E+00  -0.1025984519E+00   0.1036135305E-01   0.1590964724E-02  -0.8828768413E-03
  -0.1117752244E+01  -0.2939486714E+01   0.6078277110E+00  -0.8879833701E-02   0.6051328555E-01   0.7827687005E-02   0.0000000000E+00   0.0000000000E+00   0.0000000000E+00   0.7725162001E-01  -0.8227539851E+00   0.1163376273E-01  -0.2580891840E-01   0.1280682817E-01   0.2913921672E-02
  -0.1340542437E+01  -0.2730233033E+01   0.6071732934E+00  -0.9760736956E-02   0.5865804671E-01   0.7173269351E-02   0.0000000000E+00   0.0000000000E+00   0.0000000000E+00  -0.4287573782E-01  -0.9651306732E+00  -0.2856941362E-01   0.3547163496E-01   0.6675882816E-02   0.8586706288E-03
  -0.1341163053E+01  -0.2939400211E+01   0.6076229802E+00  -0.9996192790E-02   0.6059978909E-01   0.7622956247E-02   0.0000000000E+00   0.0000000000E+00   0.0000000000E+00   0.1682802809E+00  -0.7892934981E+00   0.8350680143E-01   0.2347180279E-01   0.1448272408E-01   0.6168024569E-02
  -0.1564379697E+01  -0.2728615977E+01   0.6069885179E+00  -0.1078582720E-01   0.5878975331E-01   0.6988493877E-02   0.0000000000E+00   0.0000000000E+00   0.0000000000E+00  -0.1232614782E+00  -0.1081668569E+01  -0.1032369709E+00   0.1229277677E-01   0.5866095177E-02   0.3214623917E-02
  -0.1565056636E+01  -0.2939172355E+01   0.6074178986E+00  -0.1118702571E-01   0.6082764500E-01   0.7417874552E-02   0.0000000000E+00   0.0000000000E+00   0.0000000000E+00   0.1483550832E+00  -0.8523600868E+00   0.5388062517E-01   0.1781140097E-01   0.1084027689E-01   0.1033080886E-01
  -0.1788561989E+01  -0.2727362279E+01   0.6068281136E+00  -0.1184241903E-01   0.5927288138E-01   0.6828089644E-02   0.0000000000E+00   0.0000000000E+00   0.0000000000E+00   0.8820230744E-01  -0.9202253164E+00   0.1341040833E+00  -0.5942805728E-01  -0.8541147371E-02   0.3158471482E-02
  -0.1789283202E+01  -0.2938547803E+01   0.6072504174E+00  -0.1242392185E-01   0.6145219726E-01   0.7250393365E-02   0.0000000000E+00   0.0000000000E+00   0.0000000000E+00   0.3307823409E+00  -0.7212941562E+00   0.2600783327E+00  -0.6457304069E-01  -0.7233128042E-02   0.9797190665E-02
  -0.2012923759E+01  -0.2725741025E+01   0.6067929860E+00  -0.1292375926E-01   0.6044233538E-01   0.6792961994E-02   0.0000000000E+00   0.0000000000E+00   0.0000000000E+00  -0.4896856946E+00  -0.1629826716E+01  -0.3273236301E+00  -0.1165784739E+00  -0.2434310641E-01   0.3050125061E-02
  -0.2013681929E+01  -0.2936965516E+01   0.6072176236E+00  -0.1368192879E-01   0.6303448354E-01   0.7217599643E-02   0.0000000000E+00   0.0000000000E+00   0.0000000000E+00  -0.2071222721E+00  -0.1389745892E+01  -0.1582122880E+00  -0.1353922006E+00  -0.2521558494E-01   0.1280240854E-01
  -0.1116221009E+01  -0.2526440599E+01   0.6068585437E+00  -0.8566078593E-02   0.5682113130E-01   0.6858519697E-02   0.0000000000E+00   0.0000000000E+00   0.0000000000E+00  -0.1142890186E+00  -0.1009776924E+01  -0.7613466755E-01   0.4421080165E-01  -0.3008633634E-02  -0.4599543751E-02
  -0.1339641866E+01  -0.2521470466E+01   0.6066912720E+00  -0.9531075890E-02   0.5666812450E-01   0.6691247951E-02   0.0000000000E+00   0.0000000000E+00   0.0000000000E+00  -0.2073074486E-01  -0.9570266082E+00   0.2535676254E-01   0.4333479615E-01   0.3428328325E-02  -0.4169198151E-02
  -0.1563641980E+01  -0.2518370782E+01   0.6065156945E+00  -0.1053376045E-01   0.5670007785E-01   0.6515670456E-02   0.0000000000E+00   0.0000000000E+00   0.0000000000E+00  -0.8613540273E-01  -0.1057727131E+01  -0.3144216205E-01   0.3889500545E-02   0.2867394978E-02  -0.3580023031E-02
  -0.1788038897E+01  -0.2516414090E+01   0.6063607299E+00  -0.1156680650E-01   0.5704101008E-01   0.6360705866E-02   0.0000000000E+00   0.0000000000E+00   0.0000000000E+00   0.9406562641E-01  -0.9276795505E+00   0.1760934653E+00  -0.5877178115E-01  -0.8969870874E-02  -0.3285447888E-02
  -0.2012623300E+01  -0.2514685859E+01   0.6063099257E+00  -0.1262330047E-01   0.5780984135E-01   0.6309901657E-02   0.0000000000E+00   0.0000000000E+00   0.0000000000E+00  -0.4271576478E+00  -0.1569215488E+01  -0.2387982781E+00  -0.1037054658E+00  -0.2211107870E-01  -0.7952640271E-02
  -0.1115042153E+01  -0.2320507175E+01   0.6063629774E+00  -0.8354603049E-02   0.5489003495E-01   0.6362953385E-02   0.0000000000E+00   0.0000000000E+00   0.0000000000E+00  -0.1118282249E+00  -0.1032603246E+01  -0.6492181766E-01   0.6146215938E-01  -0.4880427026E-02  -0.5039531358E-02
  -0.1338584585E+01  -0.2313006054E+01   0.6062034151E+00  -0.9336514531E-02   0.5461679628E-01   0.6203391146E-02   0.0000000000E+00   0.0000000000E+00   0.0000000000E+00  -0.5310804301E-01  -0.1015091039E+01   0.2747036884E-02   0.4704186664E-01   0.1617963773E-02  -0.4489707431E-02
  -0.1562834975E+01  -0.2308364614E+01   0.6060323932E+00  -0.1035725468E-01   0.5454875624E-01   0.6032369228E-02   0.0000000000E+00   0.0000000000E+00   0.0000000000E+00  -0.9159902830E-01  -0.1087927794E+01  -0.2778041355E-01   0.8150406846E-02   0.1172894076E-02  -0.4387441100E-02
  -0.1787557191E+01  -0.2305664588E+01   0.6058813042E+00  -0.1140887148E-01   0.5474419232E-01   0.5881280234E-02   0.0000000000E+00   0.0000000000E+00   0.0000000000E+00   0.1349718433E-01  -0.1032908882E+01   0.1051054268E+00  -0.3376909728E-01  -0.7030209110E-02  -0.4222732947E-02
  -0.2012482860E+01  -0.2303733384E+01   0.6057983001E+00  -0.1248286045E-01   0.5517169562E-01   0.5798276137E-02   0.0000000000E+00   0.0000000000E+00   0.0000000000E+00  -0.3471004284E+00  -0.1490248648E+01  -0.1711354499E+00  -0.5788456613E-01  -0.1531962016E-01  -0.1136546597E-01
  -0.1113762348E+01  -0.2114829563E+01   0.6058785830E+00  -0.8175338175E-02   0.5289814741E-01   0.5878558960E-02   0.0000000000E+00   0.0000000000E+00   0.0000000000E+00  -0.1006740507E+00  -0.1051961944E+01  -0.5113537982E-01   0.7722367479E-01  -0.5470475542E-02  -0.4438649124E-02
  -0.1337450089E+01  -0.2104758658E+01   0.6057232827E+00  -0.9188479498E-02   0.5250271221E-01   0.5723258664E-02   0.0000000000E+00   0.0000000000E+00   0.0000000000E+00  -0.6285185755E-01  -0.1054671613E+01  -0.4854595517E-02   0.4967541038E-01   0.6686386486E-03  -0.4027557801E-02
  -0.1561994516E+01  -0.2098534510E+01   0.6055540206E+00  -0.1024159628E-01   0.5233843974E-01   0.5553996609E-02   0.0000000000E+00   0.0000000000E+00   0.0000000000E+00  -0.7683446043E-01  -0.1100795762E+01  -0.1283209933E-01   0.1179538450E-01   0.2259635180E-03  -0.4150827327E-02
  -0.1787099837E+01  -0.2095061343E+01   0.6054020454E+00  -0.1132559710E-01   0.5239243737E-01   0.5402021384E-02   0.0000000000E+00   0.0000000000E+00   0.0000000000E+00  -0.2477978615E-01  -0.1095243621E+01   0.6452851185E-01  -0.1574296973E-01  -0.5049070455E-02  -0.4566668411E-02
  -0.2012430174E+01  -0.2092828789E+01   0.6052877433E+00  -0.1243017381E-01   0.5255385064E-01   0.5287719348E-02   0.0000000000E+00   0.0000000000E+00   0.0000000000E+00  -0.2658340737E+00  -0.1409655690E+01  -0.1137628932E+00  -0.2774100337E-01  -0.9641033278E-02  -0.1130509616E-01
  -0.1112429340E+01  -0.1909368845E+01   0.6054106605E+00  -0.8037049592E-02   0.5083885517E-01   0.5410636535E-02   0.0000000000E+00   0.0000000000E+00   0.0000000000E+00  -0.9349202182E-01  -0.1080256871E+01  -0.4407541429E-01   0.8953932306E-01  -0.5454098714E-02  -0.3590614364E-02
  -0.1336297487E+01  -0.1896688106E+01   0.6052558217E+00  -0.9091467063E-02   0.5032455364E-01   0.5255797734E-02   0.0000000000E+00   0.0000000000E+00   0.0000000000E+00  -0.6476388008E-01  -0.1089082830E+01  -0.8997881325E-02   0.5013562629E-01   0.4582897793E-03  -0.3319794116E-02
  -0.1561172812E+01  -0.1888843368E+01   0.6050856505E+00  -0.1018545219E-01   0.5007260224E-01   0.5085626519E-02   0.0000000000E+00   0.0000000000E+00   0.0000000000E+00  -0.6836868891E-01  -0.1120559202E+01  -0.9475207152E-02   0.1437385277E-01  -0.8849387115E-04  -0.3517379818E-02
  -0.1786697340E+01  -0.1884563586E+01   0.6049283326E+00  -0.1130862005E-01   0.5000017366E-01   0.4928308568E-02   0.0000000000E+00   0.0000000000E+00   0.0000000000E+00  -0.4171253592E-01  -0.1133303222E+01   0.3744307009E-01  -0.2475221529E-02  -0.3524731875E-02  -0.4380810411E-02
  -0.2012449774E+01  -0.1881943070E+01   0.6047892954E+00  -0.1244977423E-01   0.4996159992E-01   0.4789271397E-02   0.0000000000E+00   0.0000000000E+00   0.0000000000E+00  -0.2057812309E+00  -0.1351757097E+01  -0.8105798987E-01  -0.7215368232E-02  -0.6228233355E-02  -0.1017609823E-01
  -0.1111115261E+01  -0.1704119512E+01   0.6049624818E+00  -0.7952021280E-02   0.4870419765E-01   0.4962457823E-02   0.0000000000E+00   0.0000000000E+00   0.0000000000E+00  -0.9810579549E-01  -0.1124542095E+01  -0.4938516261E-01   0.9868110111E-01  -0.5026263920E-02  -0.3099560045E-02
  -0.1335276624E+01  -0.1688771378E+01   0.6048038104E+00  -0.9055513874E-02   0.4808139165E-01   0.4803786384E-02   0.0000000000E+00   0.0000000000E+00   0.0000000000E+00  -0.5885801231E-01  -0.1117082599E+01  -0.8172479335E-02   0.4656781871E-01   0.1014163855E-02  -0.2927520551E-02
  -0.1560546505E+01  -0.1679266256E+01   0.6046299477E+00  -0.1019655540E-01   0.4775603380E-01   0.4629923661E-02   0.0000000000E+00   0.0000000000E+00   0.0000000000E+00  -0.5971465795E-01  -0.1139459661E+01  -0.1001099380E-01   0.1268372876E-01   0.1454261892E-03  -0.3129516023E-02
  -0.1786472835E+01  -0.1674145616E+01   0.6044641876E+00  -0.1136306520E-01   0.4758116393E-01   0.4464163619E-02   0.0000000000E+00   0.0000000000E+00   0.0000000000E+00  -0.3563809160E-01  -0.1145167396E+01   0.2757858890E-01   0.3318839539E-02  -0.2439625032E-02  -0.4268540363E-02
  -0.2012543776E+01  -0.1671075390E+01   0.6043070358E+00  -0.1254377645E-01   0.4739374967E-01   0.4307011791E-02   0.0000000000E+00   0.0000000000E+00   0.0000000000E+00  -0.1621421590E+00  -0.1311575030E+01  -0.6605584020E-01   0.2936617322E-02  -0.4763205780E-02  -0.9165902321E-02
  -0.1110087835E+01  -0.1498879682E+01   0.6045336452E+00  -0.7932624856E-02   0.4648350827E-01   0.4533621181E-02   0.0000000000E+00   0.0000000000E+00   0.0000000000E+00  -0.1019778045E+00  -0.1172089693E+01  -0.5563064813E-01   0.1034598572E+00  -0.4330974193E-02  -0.2967612946E-02
  -0.1334858878E+01  -0.1480827923E+01   0.6043672311E+00  -0.9095417517E-02   0.4577148740E-01   0.4367207098E-02   0.0000000000E+00   0.0000000000E+00   0.0000000000E+00  -0.4342256395E-01  -0.1136273116E+01  -0.1437095244E-02   0.3724853222E-01   0.2111495968E-02  -0.3055809007E-02
  -0.1560578857E+01  -0.1469684754E+01   0.6041879391E+00  -0.1029017715E-01   0.4539331647E-01   0.4187915125E-02   0.0000000000E+00   0.0000000000E+00   0.0000000000E+00  -0.5023116180E-01  -0.1156483235E+01  -0.1399631319E-01   0.5201378002E-02   0.6659934173E-03  -0.3229146164E-02
  -0.1786702305E+01  -0.1463736456E+01   0.6040124242E+00  -0.1150313483E-01   0.4514630363E-01   0.4012400214E-02   0.0000000000E+00   0.0000000000E+00   0.0000000000E+00  -0.1597001175E-01  -0.1140772377E+01   0.2645338308E-01   0.1451823082E-02  -0.1589477923E-02  -0.4448521388E-02
  -0.2012724502E+01  -0.1460226264E+01   0.6038415670E+00  -0.1272450179E-01   0.4485026566E-01   0.3841542998E-02   0.0000000000E+00   0.0000000000E+00   0.0000000000E+00  -0.1282666928E+00  -0.1281168335E+01  -0.6281062622E-01   0.4695241779E-02  -0.4338436111E-02  -0.8946230949E-02
  -0.1109976955E+01  -0.1292716692E+01   0.6041218748E+00  -0.7999124637E-02   0.4415898825E-01   0.4121850765E-02   0.0000000000E+00   0.0000000000E+00   0.0000000000E+00  -0.1272742632E+00  -0.1243446916E+01  -0.8534472945E-01   0.1033591918E+00  -0.3220987023E-02  -0.4210552376E-02
  -0.1335945360E+01  -0.1272178489E+01   0.6039443523E+00  -0.9233230182E-02   0.4338924111E-01   0.3944328289E-02   0.0000000000E+00   0.0000000000E+00   0.0000000000E+00  -0.2686487365E-01  -0.1154185953E+01   0.1770977550E-02   0.2026557098E-01   0.3547311082E-02  -0.3765612624E-02
  -0.1562031249E+01  -0.1259695926E+01   0.6037598776E+00  -0.1048800946E-01   0.4298611401E-01   0.3759853551E-02   0.0000000000E+00   0.0000000000E+00   0.0000000000E+00  -0.3783600819E-01  -0.1169379179E+01  -0.1954080450E-01  -0.9233140698E-02   0.1335336571E-02  -0.3697078042E-02
  -0.1787792996E+01  -0.1253105630E+01   0.6035751717E+00  -0.1174838575E-01   0.4270221035E-01   0.3575147722E-02   0.0000000000E+00   0.0000000000E+00   0.0000000000E+00   0.9773680222E-02  -0.1128188857E+01   0.2730823058E-01  -0.8453674181E-02  -0.5700905066E-03  -0.4855702431E-02
  -0.2013008598E+01  -0.1249305848E+01   0.6033923338E+00  -0.1300859818E-01   0.4233479216E-01   0.3392309793E-02   0.0000000000E+00   0.0000000000E+00   0.0000000000E+00  -0.9477652906E-01  -0.1249312362E+01  -0.6330916258E-01  -0.1157455191E-02  -0.3819668333E-02  -0.9551439580E-02
  -0.1111686123E+01  -0.1083266210E+01   0.6037190948E+00  -0.8179443120E-02   0.4169970050E-01   0.3719070777E-02   0.0000000000E+00   0.0000000000E+00   0.0000000000E+00  -0.9449113453E-01  -0.1254677994E+01  -0.6193586183E-01   0.9145242471E-01  -0.1339777357E-02  -0.3514518120E-02
  -0.1339737410E+01  -0.1061374271E+01   0.6035328864E+00  -0.9498949907E-02   0.4092255893E-01   0.3532862417E-02   0.0000000000E+00   0.0000000000E+00   0.0000000000E+00   0.7361072089E-02  -0.1152822371E+01   0.1792399272E-01  -0.4900082794E-02   0.4969349148E-02  -0.3805398994E-02
  -0.1565799197E+01  -0.1048510939E+01   0.6033460938E+00  -0.1081593702E-01   0.4053172079E-01   0.3346069817E-02   0.0000000000E+00   0.0000000000E+00   0.0000000000E+00  -0.2258930322E-01  -0.1177987444E+01  -0.2606212920E-01  -0.2977215487E-01   0.2398640957E-02  -0.4386080053E-02
  -0.1790182931E+01  -0.1041809909E+01   0.6031542156E+00  -0.1212035134E-01   0.4025090127E-01   0.3154191601E-02   0.0000000000E+00   0.0000000000E+00   0.0000000000E+00   0.3036404789E-01  -0.1119218503E+01   0.1981266850E-01  -0.2612036606E-01   0.1335593887E-02  -0.5552396879E-02
  -0.2013413861E+01  -0.1038043158E+01   0.6029586574E+00  -0.1341386060E-01   0.3985415247E-01   0.2958633369E-02   0.0000000000E+00   0.0000000000E+00   0.0000000000E+00  -0.5514245748E-01  -0.1207885561E+01  -0.6222519979E-01  -0.1507110252E-01  -0.1781174001E-02  -0.1091211306E-01
  -0.1116791211E+01  -0.8662977683E+00   0.6033242511E+00  -0.8521520938E-02   0.3905899674E-01   0.3324227094E-02   0.0000000000E+00   0.0000000000E+00   0.0000000000E+00  -0.1530780860E+00  -0.1348444179E+01  -0.1263568439E+00   0.8155474982E-01   0.2589087109E-02  -0.7479590876E-02
  -0.1347792412E+01  -0.8464896030E+00   0.6031314486E+00  -0.9925391609E-02   0.3835505800E-01   0.3131424641E-02   0.0000000000E+00   0.0000000000E+00   0.0000000000E+00  -0.2616763006E-01  -0.1220141090E+01  -0.3931135204E-01  -0.3700040062E-01   0.7003099661E-02  -0.5747127956E-02
  -0.1572757651E+01  -0.8352344041E+00   0.6029453960E+00  -0.1130073051E-01   0.3802597487E-01   0.2945372020E-02   0.0000000000E+00   0.0000000000E+00   0.0000000000E+00  -0.1313878712E-01  -0.1192276829E+01  -0.4414199798E-01  -0.5854181563E-01   0.4663417761E-02  -0.5542232658E-02
  -0.1794232825E+01  -0.8293768763E+00   0.6027498394E+00  -0.1264450454E-01   0.3779202671E-01   0.2749815426E-02   0.0000000000E+00   0.0000000000E+00   0.0000000000E+00   0.3805588927E-01  -0.1124034150E+01  -0.5586360897E-02  -0.5510336206E-01   0.4930025864E-02  -0.6126426456E-02
  -0.2013966296E+01  -0.8260343765E+00   0.6025394799E+00  -0.1396629569E-01   0.3741716350E-01   0.2539455887E-02   0.0000000000E+00   0.0000000000E+00   0.0000000000E+00   0.1340667962E-01  -0.1134853538E+01  -0.3950837112E-01  -0.4149280639E-01   0.3001929419E-02  -0.1219683529E-01
  -0.7089061541E+00   0.7218630061E+00   0.6012854861E+00  -0.4053275076E-02   0.1417258809E-01   0.1285462076E-02   0.0000000000E+00   0.0000000000E+00   0.0000000000E+00   0.3073220922E-01  -0.1079287636E+01   0.2438107301E-01  -0.3231787527E+00  -0.2853822971E-01  -0.3081707257E-01
  -0.8007984213E+00   0.5201464916E+00   0.6016929536E+00  -0.5551581344E-02   0.1783293761E-01   0.1692929561E-02   0.0000000000E+00   0.0000000000E+00   0.0000000000E+00   0.3173662970E-01  -0.1281537007E+01   0.1775498602E+00  -0.1841596327E+00   0.1878765592E-01  -0.5961866935E-01
  -0.6354983006E+00   0.4237569066E+00   0.6020949012E+00  -0.5206242597E-02   0.1726956057E-01   0.2094877225E-02   0.0000000000E+00   0.0000000000E+00   0.0000000000E+00  -0.1207335379E+01  -0.2775580093E+01  -0.8734941410E+00  -0.2344045834E+00  -0.1761191403E-01  -0.1107829110E+00
  -0.5331135842E+00   0.5451546996E+00   0.6015418377E+00  -0.3813431200E-02   0.1379669565E-01   0.1541813750E-02   0.0000000000E+00   0.0000000000E+00   0.0000000000E+00  -0.2841306786E+00  -0.1567924281E+01  -0.2548048966E+00  -0.3471785054E+00  -0.7871015390E-01  -0.9721428103E-01
  -0.8653286828E+00   0.3466625605E+00   0.6020462869E+00  -0.7200909838E-02   0.2117435051E-01   0.2046262937E-02   0.0000000000E+00   0.0000000000E+00   0.0000000000E+00   0.4504457676E-01  -0.1462845364E+01   0.2892865088E+00  -0.5487197411E-01   0.4159428515E-01  -0.5290326271E-01
  -0.7054660303E+00   0.2927688522E+00   0.6025025175E+00  -0.6566940290E-02   0.2066575116E-01   0.2502493454E-02   0.0000000000E+00   0.0000000000E+00   0.0000000000E+00  -0.1805722067E+01  -0.3569392106E+01  -0.1291838471E+01  -0.1110669773E+00   0.4576244206E-01  -0.8639849473E-01
  -0.9027838700E+00   0.1827867823E+00   0.6023348297E+00  -0.8459508035E-02   0.2424909633E-01   0.2334805725E-02   0.0000000000E+00   0.0000000000E+00   0.0000000000E+00   0.7357383613E-01  -0.1500534047E+01   0.4016349457E+00  -0.1177872431E-01   0.5309421204E-01  -0.2879702196E-01
  -0.7451864320E+00   0.1595258573E+00   0.6027791180E+00  -0.7559461956E-02   0.2385556829E-01   0.2779094019E-02   0.0000000000E+00   0.0000000000E+00   0.0000000000E+00  -0.2027766066E+01  -0.3896344256E+01  -0.1439438778E+01  -0.4586653980E-01   0.7387311871E-01  -0.4076332712E-01
  -0.1062978904E+01   0.1908935822E+00   0.6020283214E+00  -0.9405293670E-02   0.2484672416E-01   0.2028297390E-02   0.0000000000E+00   0.0000000000E+00   0.0000000000E+00  -0.1647124008E+00  -0.1549885584E+01  -0.2293124854E-02   0.6103850596E-01   0.1707579837E-01  -0.2253444851E-01
  -0.1240863916E+01   0.1980758127E+00   0.6018259468E+00  -0.1045000609E-01   0.2506352672E-01   0.1825922751E-02   0.0000000000E+00   0.0000000000E+00   0.0000000000E+00  -0.1812033129E-01  -0.1301236881E+01   0.6324120404E-01   0.1050081850E+00  -0.5539036854E-02  -0.1149882415E-01
  -0.1428775996E+01   0.2044530569E+00   0.6016731528E+00  -0.1152714551E-01   0.2527073589E-01   0.1673128790E-02   0.0000000000E+00   0.0000000000E+00   0.0000000000E+00  -0.7682160668E-01  -0.1298056160E+01  -0.2350719046E-01   0.8414498705E-01  -0.1120014372E-01  -0.7826198131E-02
  -0.1621971463E+01   0.2096398544E+00   0.6015088890E+00  -0.1262078276E-01   0.2550835145E-01   0.1508865004E-02   0.0000000000E+00   0.0000000000E+00   0.0000000000E+00  -0.6545370559E-02  -0.1184393075E+01   0.2000633160E-01   0.7051954654E-01  -0.9976338609E-02  -0.5284968310E-02
  -0.1817285116E+01   0.2116163429E+00   0.6013175914E+00  -0.1372581559E-01   0.2584440094E-01   0.1317567386E-02   0.0000000000E+00   0.0000000000E+00   0.0000000000E+00  -0.4926651764E-01  -0.1182040030E+01  -0.5515091656E-01   0.4174342939E-01  -0.3120373511E-02  -0.2627702033E-02
  -0.2014830515E+01   0.2146608310E+00   0.6010623199E+00  -0.1483051532E-01   0.2627790701E-01   0.1062295890E-02   0.0000000000E+00   0.0000000000E+00   0.0000000000E+00   0.1415946497E+00  -0.9241598853E+00   0.7468951725E-01   0.2042324932E-01   0.2443648629E-02   0.1541812871E-02
  -0.1035935475E+01   0.3660599211E+00   0.6017355467E+00  -0.8143974601E-02   0.2219101014E-01   0.1735522660E-02   0.0000000000E+00   0.0000000000E+00   0.0000000000E+00   0.6444901879E-01  -0.1307110222E+01   0.1175752119E+00   0.6360654203E-01   0.1330446007E-01  -0.3291637645E-01
  -0.1221162223E+01   0.3796498103E+00   0.6015670644E+00  -0.9294173178E-02   0.2260046434E-01   0.1567040353E-02   0.0000000000E+00   0.0000000000E+00   0.0000000000E+00   0.2015969156E-01  -0.1306591596E+01   0.1019128508E-02   0.1412340176E+00  -0.7430093272E-02  -0.1898635400E-01
  -0.1414345421E+01   0.3903346801E+00   0.6014281316E+00  -0.1048867102E-01   0.2289725811E-01   0.1428107564E-02   0.0000000000E+00   0.0000000000E+00   0.0000000000E+00   0.4489265931E-01  -0.1214229627E+01   0.1533455090E-01   0.1212941964E+00  -0.8447642932E-02  -0.1241136759E-01
  -0.1612090265E+01   0.3987905701E+00   0.6012781903E+00  -0.1169089547E-01   0.2320799406E-01   0.1278166328E-02   0.0000000000E+00   0.0000000000E+00   0.0000000000E+00   0.6249262940E-01  -0.1151094766E+01   0.2227065094E-01   0.1038981476E+00  -0.7620516682E-02  -0.7267377241E-02
  -0.1812331249E+01   0.4040996222E+00   0.6010980976E+00  -0.1289658935E-01   0.2362708120E-01   0.1098073646E-02   0.0000000000E+00   0.0000000000E+00   0.0000000000E+00   0.3592865493E-01  -0.1130239261E+01  -0.2312690996E-01   0.6341550468E-01  -0.7787910967E-03  -0.3213158015E-02
  -0.2014097104E+01   0.4086678191E+00   0.6008595443E+00  -0.1409710428E-01   0.2423654614E-01   0.8595202659E-03   0.0000000000E+00   0.0000000000E+00   0.0000000000E+00   0.1723798886E+00  -0.9330385975E+00   0.6509079938E-01   0.2911925526E-01   0.4085139286E-02   0.3700368823E-02
  -0.9949155517E+00   0.5484322147E+00   0.6014501944E+00  -0.6582803711E-02   0.1945601266E-01   0.1450170438E-02   0.0000000000E+00   0.0000000000E+00   0.0000000000E+00   0.2112703805E+00  -0.1097340119E+01   0.1699965108E+00  -0.4378070599E-01   0.7358475700E-02  -0.2223861464E-01
  -0.1194047666E+01   0.5650414560E+00   0.6013178393E+00  -0.7914396241E-02   0.2009323605E-01   0.1317815323E-02   0.0000000000E+00   0.0000000000E+00   0.0000000000E+00   0.2007212140E+00  -0.1139443445E+01   0.8511701801E-01   0.9578299742E-01  -0.4587534802E-02  -0.9751500922E-02
  -0.1395815701E+01   0.5777383288E+00   0.6012060489E+00  -0.9253951448E-02   0.2050702184E-01   0.1206024870E-02   0.0000000000E+00   0.0000000000E+00   0.0000000000E+00   0.1561249380E+00  -0.1118969341E+01   0.5557525321E-01   0.9968909158E-01  -0.4976641747E-02  -0.4649318712E-02
  -0.1600013411E+01   0.5882375679E+00   0.6010761235E+00  -0.1056853123E-01   0.2089767093E-01   0.1076099489E-02   0.0000000000E+00   0.0000000000E+00   0.0000000000E+00   0.1357343557E+00  -0.1099639800E+01   0.4091584254E-01   0.1015207435E+00  -0.3239160950E-02  -0.8285606640E-03
  -0.1806065886E+01   0.5957893844E+00   0.6009130367E+00  -0.1186665621E-01   0.2140064237E-01   0.9130126887E-03   0.0000000000E+00   0.0000000000E+00   0.0000000000E+00   0.9832772221E-01  -0.1092369979E+01  -0.2336108851E-03   0.6726356604E-01   0.2335872774E-02   0.2686141259E-02
  -0.2013153018E+01   0.6016781679E+00   0.6006995858E+00  -0.1315301751E-01   0.2215841887E-01   0.6995618464E-03   0.0000000000E+00   0.0000000000E+00   0.0000000000E+00   0.1864531005E+00  -0.9571717679E+00   0.5648352546E-01   0.3723512479E-01   0.5702229238E-02   0.1102576014E-01
  -0.9512779026E+00   0.7430929242E+00   0.6012676468E+00  -0.5428841608E-02   0.1668563421E-01   0.1267622829E-02   0.0000000000E+00   0.0000000000E+00   0.0000000000E+00   0.7276000232E-01  -0.1159363384E+01   0.3759739327E-01  -0.1743417331E+00  -0.6821560710E-03   0.5598093094E-02
  -0.1165905587E+01   0.7547986992E+00   0.6011700069E+00  -0.6797066716E-02   0.1761190917E-01   0.1169982906E-02   0.0000000000E+00   0.0000000000E+00   0.0000000000E+00   0.7984834170E-01  -0.1180373319E+01   0.2936574051E-03   0.2945290447E-01   0.2268337787E-02   0.7034518271E-02
  -0.1375811455E+01   0.7667588294E+00   0.6010665387E+00  -0.8126254794E-02   0.1813593537E-01   0.1066514749E-02   0.0000000000E+00   0.0000000000E+00   0.0000000000E+00   0.6075038647E-01  -0.1173913712E+01  -0.1925745806E-01   0.6398922206E-01   0.4703178214E-03   0.7314306665E-02
  -0.1586467361E+01   0.7790253223E+00   0.6009419233E+00  -0.9428600772E-02   0.1858413826E-01   0.9418992871E-03   0.0000000000E+00   0.0000000000E+00   0.0000000000E+00   0.6640329100E-01  -0.1146451765E+01  -0.1379041353E-01   0.8806143427E-01   0.1722779855E-02   0.7537534258E-02
  -0.1798638721E+01   0.7893636853E+00   0.6007870162E+00  -0.1072170061E-01   0.1914078331E-01   0.7869921597E-03   0.0000000000E+00   0.0000000000E+00   0.0000000000E+00   0.5590315335E-01  -0.1128427229E+01  -0.2927094734E-01   0.6603460256E-01   0.4389361099E-02   0.9466018573E-02
  -0.2012026021E+01   0.7956960684E+00   0.6005986554E+00  -0.1202602091E-01   0.2001528840E-01   0.5986313990E-03   0.0000000000E+00   0.0000000000E+00   0.0000000000E+00   0.1335538801E+00  -0.1022589706E+01   0.3032919846E-01   0.4566254736E-01   0.4951286823E-02   0.1738664349E-01
  -0.1794101730E+01   0.9842942908E+00   0.6007013520E+00  -0.9563699919E-02   0.1688020984E-01   0.7013280049E-03   0.0000000000E+00   0.0000000000E+00   0.0000000000E+00   0.6758128007E-02  -0.1148481926E+01  -0.3188851854E-01   0.5186582475E-01   0.7052600811E-02   0.1129421971E-01
  -0.2010811759E+01   0.9912725827E+00   0.6005361623E+00  -0.1081175931E-01   0.1781065667E-01   0.5361383437E-03   0.0000000000E+00   0.0000000000E+00   0.0000000000E+00   0.4205120983E-01  -0.1103893740E+01  -0.5392506680E-02   0.3579005788E-01   0.5436380642E-02   0.1866802657E-01
  -0.1791938892E+01   0.1181832288E+01   0.6006341005E+00  -0.8506412459E-02   0.1461765841E-01   0.6340764605E-03   0.0000000000E+00   0.0000000000E+00   0.0000000000E+00  -0.2568227486E-01  -0.1143368099E+01  -0.1456196866E-01   0.2919303092E-01   0.2879704146E-02   0.1023011292E-01
  -0.2009674380E+01   0.1188733809E+01   0.6004918400E+00  -0.9674380290E-02   0.1556121880E-01   0.4918160419E-03   0.0000000000E+00   0.0000000000E+00   0.0000000000E+00  -0.2543358518E-01  -0.1147951410E+01  -0.1420230911E-01   0.1381726865E-01   0.4054959671E-03   0.1698569774E-01
  -0.1791442957E+01   0.1381231376E+01   0.6005773313E+00  -0.7561056761E-02   0.1237303629E-01   0.5773072768E-03   0.0000000000E+00   0.0000000000E+00   0.0000000000E+00  -0.6959443985E-01  -0.1146653840E+01  -0.1696231033E-01   0.1731410271E-01   0.8668263441E-03   0.8326345266E-02
  -0.2008644813E+01   0.1387682951E+01   0.6004556724E+00  -0.8644813281E-02   0.1329580110E-01   0.4556484303E-03   0.0000000000E+00   0.0000000000E+00   0.0000000000E+00  -0.6567723954E-01  -0.1157401766E+01  -0.6308063159E-02   0.2286751224E-02  -0.1717387288E-02   0.1439209952E-01
  -0.1791912462E+01   0.1581814342E+01   0.6005296538E+00  -0.6680511664E-02   0.1016932234E-01   0.5296298015E-03   0.0000000000E+00   0.0000000000E+00   0.0000000000E+00  -0.1054573155E+00  -0.1135320509E+01  -0.1933420104E-01   0.1714151332E-01  -0.7280993121E-03   0.6155667686E-02
  -0.2007676328E+01   0.1587621361E+01   0.6004273141E+00  -0.7676328019E-02   0.1104703067E-01   0.4272900530E-03   0.0000000000E+00   0.0000000000E+00   0.0000000000E+00  -0.9161396567E-01  -0.1143437009E+01   0.6125183613E-02   0.2387309170E-02  -0.2810468117E-02   0.1200506165E-01
  -0.1792876592E+01   0.1783112611E+01   0.6004885698E+00  -0.5828131968E-02   0.8036460652E-02   0.4885457652E-03   0.0000000000E+00   0.0000000000E+00   0.0000000000E+00  -0.1397837327E+00  -0.1111153055E+01  -0.2807171241E-01   0.2630330632E-01  -0.2515125890E-02   0.3466298465E-02
  -0.2006730564E+01   0.1788172927E+01   0.6004066000E+00  -0.6730564266E-02   0.8849827154E-02   0.4065759614E-03   0.0000000000E+00   0.0000000000E+00   0.0000000000E+00  -0.1348100105E+00  -0.1134942199E+01  -0.6801538784E-02   0.1104087979E-01  -0.4083520508E-02   0.9579269903E-02
  -0.1794058129E+01   0.1984858899E+01   0.6004497942E+00  -0.4971788727E-02   0.6013538629E-02   0.4497701543E-03   0.0000000000E+00   0.0000000000E+00   0.0000000000E+00  -0.1190735051E+00  -0.1014984545E+01   0.9670820045E-02   0.4425477663E-01  -0.4759236637E-02  -0.6071599815E-04
  -0.2005772345E+01   0.1989113980E+01   0.6003916319E+00  -0.5772345419E-02   0.6742290116E-02   0.3916079099E-03   0.0000000000E+00   0.0000000000E+00   0.0000000000E+00  -0.1444986632E+00  -0.1077313009E+01   0.6554376854E-02   0.2835677356E-01  -0.6238805738E-02   0.6673638950E-02
  -0.1795296562E+01   0.2186940554E+01   0.6004068172E+00  -0.4086151831E-02   0.4152183664E-02   0.4067931555E-03   0.0000000000E+00   0.0000000000E+00   0.0000000000E+00  -0.2012801013E+00  -0.9987565996E+00  -0.6587073034E-01   0.6951132629E-01  -0.7337682412E-02  -0.4702922278E-02
  -0.2004772590E+01   0.2190347737E+01   0.6003775467E+00  -0.4772589847E-02   0.4770106679E-02   0.3775226716E-03   0.0000000000E+00   0.0000000000E+00   0.0000000000E+00  -0.3700321487E+00  -0.1215258603E+01  -0.2038283952E+00   0.5443829815E-01  -0.9426180638E-02   0.2703321693E-02
  -0.1796446467E+01   0.2389364015E+01   0.6003510347E+00  -0.3153467180E-02   0.2520574936E-02   0.3510107461E-03   0.0000000000E+00   0.0000000000E+00   0.0000000000E+00   0.2468331650E+00  -0.4185248196E+00   0.3759364594E+00   0.1008581512E+00  -0.9280717097E-02  -0.1049238925E-01
  -0.2003708830E+01   0.2391888405E+01   0.6003549548E+00  -0.3708829919E-02   0.2994085143E-02   0.3549307827E-03   0.0000000000E+00   0.0000000000E+00   0.0000000000E+00   0.7520547665E-01  -0.6497356886E+00   0.2455667468E+00   0.9105210821E-01  -0.1265274437E-01  -0.3260909573E-02
  -0.1797280952E+01   0.2592231386E+01   0.6002710260E+00  -0.2163571643E-02   0.1207465796E-02   0.2710020478E-03   0.0000000000E+00   0.0000000000E+00   0.0000000000E+00  -0.1138863225E+01  -0.1639217111E+01  -0.1033510120E+01   0.1335818851E+00  -0.8400162476E-02  -0.1720642410E-01
  -0.2002566964E+01   0.2593852347E+01   0.6003066715E+00  -0.2566964127E-02   0.1502336799E-02   0.3066474774E-03   0.0000000000E+00   0.0000000000E+00   0.0000000000E+00  -0.2132198617E+01  -0.2703921849E+01  -0.1976772462E+01   0.1346589305E+00  -0.1319449685E-01  -0.1142417614E-01
  -0.1797504739E+01   0.2795715097E+01   0.6001539146E+00  -0.1118259470E-02   0.3242565175E-03   0.1538905660E-03   0.0000000000E+00   0.0000000000E+00   0.0000000000E+00   0.4436407727E+01   0.4176816781E+01   0.4495147523E+01   0.1666820532E+00  -0.1456780684E-02  -0.2377935486E-01
  -0.2001346565E+01   0.2796452285E+01   0.6002019218E+00  -0.1346565375E-02   0.4305853803E-03   0.2018978201E-03   0.0000000000E+00   0.0000000000E+00   0.0000000000E+00   0.5635236187E+01   0.5320762399E+01   0.5738706578E+01   0.1893124821E+00  -0.6256054759E-02  -0.2657504649E-01
  -0.1797227740E+01   0.3000000000E+01   0.6000000240E+00   0.0000000000E+00   0.0000000000E+00   0.0000000000E+00   0.0000000000E+00   0.0000000000E+00   0.0000000000E+00  -0.1624214529E+02  -0.1630737035E+02  -0.1624220830E+02   0.1849691248E+00  -0.6364172986E-05  -0.2631798945E-01
  -0.2000000000E+01   0.3000000000E+01   0.6000000240E+00   0.0000000000E+00   0.0000000000E+00   0.0000000000E+00   0.0000000000E+00   0.0000000000E+00   0.0000000000E+00  -0.2313637158E+02  -0.2322925943E+02  -0.2313644987E+02   0.2249682175E+00  -0.1847860434E-04  -0.3667238274E-01
  -0.1578651443E+01   0.9735929705E+00   0.6008481261E+00  -0.8341802873E-02   0.1627514154E-01   0.8481021170E-03   0.0000000000E+00   0.0000000000E+00   0.0000000000E+00  -0.2467599459E-01  -0.1189356563E+01  -0.5159123772E-01   0.7141450134E-01   0.6936010916E-02   0.8734103579E-02
  -0.1575346250E+01   0.1171538096E+01   0.6007642301E+00  -0.7368700045E-02   0.1398966586E-01   0.7642061130E-03   0.0000000000E+00   0.0000000000E+00   0.0000000000E+00  -0.3764836185E-01  -0.1150964796E+01  -0.1781258492E-01   0.5007139222E-01   0.3686282132E-02   0.6846756833E-02
  -0.1575199311E+01   0.1371752039E+01   0.6006881555E+00  -0.6509490583E-02   0.1175154869E-01   0.6881314675E-03   0.0000000000E+00   0.0000000000E+00   0.0000000000E+00  -0.7404267337E-01  -0.1134078567E+01  -0.1752994562E-01   0.3836067528E-01   0.2032453659E-02   0.4975359813E-02
  -0.1576928103E+01   0.1573375272E+01   0.6006194119E+00  -0.5718192827E-02   0.9584592105E-02   0.6193878955E-03   0.0000000000E+00   0.0000000000E+00   0.0000000000E+00  -0.9104468019E-01  -0.1092135394E+01  -0.6725013443E-02   0.3787844015E-01   0.4148394247E-03   0.2817736486E-02
  -0.1579654336E+01   0.1775844120E+01   0.6005563209E+00  -0.4960176129E-02   0.7517240488E-02   0.5562968989E-03   0.0000000000E+00   0.0000000000E+00   0.0000000000E+00  -0.1107785613E+00  -0.1042959662E+01  -0.6741767107E-02   0.4633126666E-01  -0.1294062375E-02   0.4408029495E-03
  -0.1582856602E+01   0.1978837422E+01   0.6004958318E+00  -0.4206601853E-02   0.5584892329E-02   0.4958077513E-03   0.0000000000E+00   0.0000000000E+00   0.0000000000E+00  -0.9205645095E-01  -0.9403742924E+00   0.2397472620E-01   0.6259587444E-01  -0.3025693398E-02  -0.2513301347E-02
  -0.1586223782E+01   0.2182207950E+01   0.6004329352E+00  -0.3435311514E-02   0.3832470218E-02   0.4329111812E-03   0.0000000000E+00   0.0000000000E+00   0.0000000000E+00  -0.1917153910E+00  -0.9366119099E+00  -0.7234353674E-01   0.8385558588E-01  -0.4561119015E-02  -0.6224240855E-02
  -0.1589459081E+01   0.2385930069E+01   0.6003617159E+00  -0.2632871376E-02   0.2316959254E-02   0.3616918893E-03   0.0000000000E+00   0.0000000000E+00   0.0000000000E+00   0.1666737020E+00  -0.4466581776E+00   0.2798827271E+00   0.1071487702E+00  -0.5185373707E-02  -0.1091609041E-01
  -0.1592105765E+01   0.2590068606E+01   0.6002735010E+00  -0.1791374768E-02   0.1109866146E-02   0.2734769997E-03   0.0000000000E+00   0.0000000000E+00   0.0000000000E+00  -0.1210195240E+01  -0.1666663985E+01  -0.1115904068E+01   0.1276660821E+00  -0.3511590673E-02  -0.1624148250E-01
  -0.1593620981E+01   0.2794729194E+01   0.6001571814E+00  -0.9145407686E-03   0.3003637396E-03   0.1571574147E-03   0.0000000000E+00   0.0000000000E+00   0.0000000000E+00   0.3888864046E+01   0.3653827145E+01   0.3946483202E+01   0.1432557483E+00   0.2247691837E-02  -0.2320810343E-01
  -0.1594253180E+01   0.3000000000E+01   0.6000000240E+00   0.0000000000E+00   0.0000000000E+00   0.0000000000E+00   0.0000000000E+00   0.0000000000E+00   0.0000000000E+00  -0.1516117560E+02  -0.1522202133E+02  -0.1516121526E+02   0.1497352925E+00  -0.4647653242E-05  -0.2699635784E-01
  -0.1364972298E+01   0.9622035458E+00   0.6009722419E+00  -0.7137127807E-02   0.1577655779E-01   0.9722178898E-03   0.0000000000E+00   0.0000000000E+00   0.0000000000E+00  -0.6842875574E-01  -0.1234132088E+01  -0.7919724439E-01   0.4747176102E-01   0.6738110521E-02   0.7813116723E-02
  -0.1360769313E+01   0.1161351072E+01   0.6008747468E+00  -0.6256742927E-02   0.1346789198E-01   0.8747228066E-03   0.0000000000E+00   0.0000000000E+00   0.0000000000E+00  -0.4848141142E-01  -0.1152153679E+01  -0.1475487452E-01   0.3278839244E-01   0.3560056572E-02   0.4775583383E-02
  -0.1361014033E+01   0.1362741880E+01   0.6007834860E+00  -0.5491163038E-02   0.1123636037E-01   0.7834619838E-03   0.0000000000E+00   0.0000000000E+00   0.0000000000E+00  -0.8883897466E-01  -0.1127851372E+01  -0.2104906783E-01   0.2308179029E-01   0.2478427354E-02   0.3250557545E-02
  -0.1363875145E+01   0.1565515820E+01   0.6006981439E+00  -0.4794475172E-02   0.9103960066E-02   0.6981199393E-03   0.0000000000E+00   0.0000000000E+00   0.0000000000E+00  -0.1025711713E+00  -0.1072625356E+01  -0.1065159586E-01   0.2388863902E-01   0.1205716670E-02   0.9823064512E-03
  -0.1368148054E+01   0.1769149989E+01   0.6006178479E+00  -0.4133903599E-02   0.7095309298E-02   0.6178238909E-03   0.0000000000E+00   0.0000000000E+00   0.0000000000E+00  -0.1211664119E+00  -0.1014162266E+01  -0.1348028604E-01   0.3166598344E-01  -0.1079237962E-03  -0.1246867429E-02
  -0.1373114977E+01   0.1973334393E+01   0.6005409214E+00  -0.3484397216E-02   0.5240283463E-02   0.5408974406E-03   0.0000000000E+00   0.0000000000E+00   0.0000000000E+00  -0.1038486914E+00  -0.9074627053E+00   0.1267674980E-01   0.4575447046E-01  -0.1451532660E-02  -0.3948233695E-02
  -0.1378328047E+01   0.2177914774E+01   0.6004630970E+00  -0.2826296508E-02   0.3576194060E-02   0.4630730125E-03   0.0000000000E+00   0.0000000000E+00   0.0000000000E+00  -0.1869902485E+00  -0.8853586222E+00  -0.6937403938E-01   0.6345222028E-01  -0.2804512857E-02  -0.7276422267E-02
  -0.1383328400E+01   0.2382848754E+01   0.6003796420E+00  -0.2150739604E-02   0.2150554093E-02   0.3796179896E-03   0.0000000000E+00   0.0000000000E+00   0.0000000000E+00   0.1529463932E+00  -0.4164895266E+00   0.2638064586E+00   0.8238956814E-01  -0.3839979777E-02  -0.1153902245E-01
  -0.1387462492E+01   0.2588162880E+01   0.6002822275E+00  -0.1451492215E-02   0.1024230153E-02   0.2822034653E-03   0.0000000000E+00   0.0000000000E+00   0.0000000000E+00  -0.1068063103E+01  -0.1487589189E+01  -0.9753382120E+00   0.9966486133E-01  -0.3591730100E-02  -0.1662814185E-01
  -0.1390042771E+01   0.2793886128E+01   0.6001599407E+00  -0.7334807788E-03   0.2750778155E-03   0.1599166729E-03   0.0000000000E+00   0.0000000000E+00   0.0000000000E+00   0.3567231932E+01   0.3354028825E+01   0.3624905831E+01   0.1130558410E+00  -0.3615378801E-05  -0.2348075521E-01
  -0.1391371730E+01   0.3000000000E+01   0.6000000240E+00   0.0000000000E+00   0.0000000000E+00   0.0000000000E+00   0.0000000000E+00   0.0000000000E+00   0.0000000000E+00  -0.1373210467E+02  -0.1378717720E+02  -0.1373212165E+02   0.1190717303E+00  -0.3555429536E-05  -0.2722844409E-01
  -0.1153272198E+01   0.9540864004E+00   0.6010803056E+00  -0.5948827531E-02   0.1516107436E-01   0.1080281606E-02   0.0000000000E+00   0.0000000000E+00   0.0000000000E+00  -0.9741049168E-01  -0.1256147618E+01  -0.7912499962E-01   0.6301829485E-02   0.9515566379E-02   0.7541802854E-02
  -0.1149368380E+01   0.1155863923E+01   0.6009644526E+00  -0.5169960252E-02   0.1281754267E-01   0.9644285846E-03   0.0000000000E+00   0.0000000000E+00   0.0000000000E+00  -0.2041125062E-01  -0.1107522239E+01   0.3345203347E-01  -0.6766365015E-02   0.4959612905E-02   0.2728424077E-02
  -0.1150506414E+01   0.1358675425E+01   0.6008581189E+00  -0.4508894419E-02   0.1060003484E-01   0.8580948735E-03   0.0000000000E+00   0.0000000000E+00   0.0000000000E+00  -0.1014220429E+00  -0.1112768564E+01  -0.1820683053E-01  -0.1795508846E-01   0.2529937958E-02   0.2254291331E-02
  -0.1154455107E+01   0.1562269562E+01   0.6007561179E+00  -0.3913207415E-02   0.8520241955E-02   0.7560938588E-03   0.0000000000E+00   0.0000000000E+00   0.0000000000E+00  -0.1100227584E+00  -0.1042204234E+01  -0.8891540275E-02  -0.1308765518E-01  -0.2892425718E-04  -0.4826745866E-03
  -0.1159932184E+01   0.1766509680E+01   0.6006598749E+00  -0.3353284221E-02   0.6592899615E-02   0.6598509115E-03   0.0000000000E+00   0.0000000000E+00   0.0000000000E+00  -0.1294673687E+00  -0.9763635935E+00  -0.1783140060E-01  -0.8810401041E-03  -0.1950333926E-02  -0.2508881398E-02
  -0.1166175707E+01   0.1971239235E+01   0.6005687439E+00  -0.2808796694E-02   0.4838375468E-02   0.5687199404E-03   0.0000000000E+00   0.0000000000E+00   0.0000000000E+00  -0.1097133728E+00  -0.8619666450E+00   0.7076648545E-02   0.1785239828E-01  -0.3309592226E-02  -0.5055704921E-02
  -0.1172654784E+01   0.2176348746E+01   0.6004787872E+00  -0.2261794262E-02   0.3283795910E-02   0.4787632384E-03   0.0000000000E+00   0.0000000000E+00   0.0000000000E+00  -0.1796953721E+00  -0.8257203257E+00  -0.6434054642E-01   0.3897257472E-01  -0.4282963013E-02  -0.8031566043E-02
  -0.1178808083E+01   0.2381798691E+01   0.6003863215E+00  -0.1708852832E-02   0.1965471339E-02   0.3862975242E-03   0.0000000000E+00   0.0000000000E+00   0.0000000000E+00   0.1292882153E+00  -0.3916986333E+00   0.2372235549E+00   0.5947814350E-01  -0.4792344980E-02  -0.1186121704E-01
  -0.1183909036E+01   0.2587585716E+01   0.6002832493E+00  -0.1144746278E-02   0.9324864060E-03   0.2832253369E-03   0.0000000000E+00   0.0000000000E+00   0.0000000000E+00  -0.9819221168E+00  -0.1361882045E+01  -0.8913857231E+00   0.7685362004E-01  -0.4189424485E-02  -0.1655502967E-01
  -0.1187237107E+01   0.2793685102E+01   0.6001592503E+00  -0.5743166148E-03   0.2497615002E-03   0.1592263037E-03   0.0000000000E+00   0.0000000000E+00   0.0000000000E+00   0.3196166127E+01   0.3005087753E+01   0.3253551287E+01   0.8849774629E-01  -0.7672874659E-03  -0.2323235765E-01
  -0.1189031000E+01   0.3000000000E+01   0.6000000240E+00   0.0000000000E+00   0.0000000000E+00   0.0000000000E+00   0.0000000000E+00   0.0000000000E+00   0.0000000000E+00  -0.1244448076E+02  -0.1249437339E+02  -0.1244448822E+02   0.9284494961E-01   0.2347604253E-05  -0.2703051482E-01
  -0.9422333426E+00   0.9530725829E+00   0.6011576859E+00  -0.4784244571E-02   0.1408288388E-01   0.1157661887E-02   0.0000000000E+00   0.0000000000E+00   0.0000000000E+00  -0.3326739815E+00  -0.1464855114E+01  -0.2790802881E+00  -0.1680562257E+00  -0.6392637477E-02   0.6446700283E-02
  -0.9418529733E+00   0.1159341880E+01   0.6010106591E+00  -0.4112528320E-02   0.1173860959E-01   0.1010635109E-02   0.0000000000E+00   0.0000000000E+00   0.0000000000E+00  -0.1614749012E+00  -0.1216733728E+01  -0.9820646149E-01  -0.1298490475E+00  -0.1033692631E-01   0.2560217695E-03
  -0.9450392933E+00   0.1363303601E+01   0.6008848107E+00  -0.3570935262E-02   0.9607021481E-02   0.8847866605E-03   0.0000000000E+00   0.0000000000E+00   0.0000000000E+00  -0.2049049096E+00  -0.1167220850E+01  -0.1218119452E+00  -0.1134313892E+00  -0.1050703111E-01   0.9978110041E-03
  -0.9500998654E+00   0.1566792681E+01   0.6007667445E+00  -0.3081778352E-02   0.7662731244E-02   0.7667204544E-03   0.0000000000E+00   0.0000000000E+00   0.0000000000E+00  -0.1415439434E+00  -0.1012621366E+01  -0.4858231231E-01  -0.7930007077E-01  -0.9927119137E-02  -0.1763331421E-02
  -0.9562867475E+00   0.1770550179E+01   0.6006599053E+00  -0.2625007453E-02   0.5895538912E-02   0.6598812567E-03   0.0000000000E+00   0.0000000000E+00   0.0000000000E+00  -0.1253232327E+00  -0.9044765507E+00  -0.2560066010E-01  -0.4823833650E-01  -0.8885913210E-02  -0.3046616810E-02
  -0.9630799604E+00   0.1974692446E+01   0.6005623248E+00  -0.2185256387E-02   0.4308326112E-02   0.5623008267E-03   0.0000000000E+00   0.0000000000E+00   0.0000000000E+00  -0.8886482613E-01  -0.7721373956E+00   0.1528885039E-01  -0.1634891185E-01  -0.7762926753E-02  -0.5204616024E-02
  -0.9699935700E+00   0.2179168933E+01   0.6004685730E+00  -0.1745679967E-02   0.2914903019E-02   0.4685489869E-03   0.0000000000E+00   0.0000000000E+00   0.0000000000E+00  -0.1412127995E+00  -0.7223126212E+00  -0.3784123560E-01   0.1211452161E-01  -0.6797608228E-02  -0.7789797371E-02
  -0.9764961484E+00   0.2383950871E+01   0.6003749059E+00  -0.1309502436E-02   0.1740381262E-02   0.3748819443E-03   0.0000000000E+00   0.0000000000E+00   0.0000000000E+00   0.1318759262E+00  -0.3330440841E+00   0.2299399298E+00   0.3574960449E-01  -0.5975594165E-02  -0.1128498927E-01
  -0.9819320060E+00   0.2589036836E+01   0.6002727074E+00  -0.8715610347E-03   0.8238664654E-03   0.2726833905E-03   0.0000000000E+00   0.0000000000E+00   0.0000000000E+00  -0.8482761225E+00  -0.1185026629E+01  -0.7649043260E+00   0.5412928082E-01  -0.4807155330E-02  -0.1579675755E-01
  -0.9856411782E+00   0.2794414315E+01   0.6001521928E+00  -0.4358261902E-03   0.2200953033E-03   0.1521688351E-03   0.0000000000E+00   0.0000000000E+00   0.0000000000E+00   0.2826573510E+01   0.2658560770E+01   0.2880179400E+01   0.6600410620E-01  -0.1770071259E-02  -0.2221046588E-01
  -0.9877309200E+00   0.3000000000E+01   0.6000000240E+00   0.0000000000E+00   0.0000000000E+00   0.0000000000E+00   0.0000000000E+00   0.0000000000E+00   0.0000000000E+00  -0.1097835799E+02  -0.1102235746E+02  -0.1097835700E+02   0.7064161094E-01   0.3175044665E-05  -0.2585411928E-01
  -0.7272589620E+00   0.9605711252E+00   0.6010524180E+00  -0.3630798963E-02   0.1182700716E-01   0.1052394039E-02   0.0000000000E+00   0.0000000000E+00   0.0000000000E+00  -0.8501135073E-01  -0.1103575751E+01  -0.1157766624E+00  -0.2680381561E+00  -0.3549508812E-01  -0.3490542674E-02
  -0.7353601690E+00   0.1170226699E+01   0.6009101759E+00  -0.3093683028E-02   0.9891158571E-02   0.9101519187E-03   0.0000000000E+00   0.0000000000E+00   0.0000000000E+00   0.1287743657E+00  -0.7837526114E+00   0.1261093452E+00  -0.1902075594E+00  -0.2521108093E-01  -0.1457774733E-02
  -0.7416463212E+00   0.1373236491E+01   0.6007976426E+00  -0.2688558237E-02   0.8141111272E-02   0.7976185774E-03   0.0000000000E+00   0.0000000000E+00   0.0000000000E+00   0.6910265324E-01  -0.7645384483E+00   0.9120491625E-01  -0.1523517924E+00  -0.1950577912E-01  -0.2945281946E-03
  -0.7478808093E+00   0.1575334309E+01   0.6006970238E+00  -0.2311759295E-02   0.6531238859E-02   0.6969997812E-03   0.0000000000E+00   0.0000000000E+00   0.0000000000E+00   0.4668418331E-01  -0.7059459559E+00   0.9167753471E-01  -0.1015060852E+00  -0.1477300529E-01  -0.1484381498E-02
  -0.7546207159E+00   0.1777866984E+01   0.6006058109E+00  -0.1959308937E-02   0.5050083863E-02   0.6057869418E-03   0.0000000000E+00   0.0000000000E+00   0.0000000000E+00   0.8917634912E-03  -0.6746341668E+00   0.6324852901E-01  -0.6351430346E-01  -0.1138575408E-01  -0.2606598742E-02
  -0.7617383176E+00   0.1980826575E+01   0.6005208155E+00  -0.1622336581E-02   0.3705344685E-02   0.5207914864E-03   0.0000000000E+00   0.0000000000E+00   0.0000000000E+00  -0.1420297440E-01  -0.6076699655E+00   0.6205323088E-01  -0.2832656094E-01  -0.8829731382E-02  -0.4668535957E-02
  -0.7688431071E+00   0.2184045108E+01   0.6004365164E+00  -0.1284652073E-02   0.2515108055E-02   0.4364923605E-03   0.0000000000E+00   0.0000000000E+00   0.0000000000E+00  -0.8707808173E-01  -0.5928343560E+00  -0.4502389999E-02   0.1106116707E-03  -0.6906482171E-02  -0.7219052310E-02
  -0.7755579785E+00   0.2387496455E+01   0.6003504489E+00  -0.9572935172E-03   0.1505355404E-02   0.3504249013E-03   0.0000000000E+00   0.0000000000E+00   0.0000000000E+00   0.1337794190E+00  -0.2712316277E+00   0.2168345999E+00   0.2168916055E-01  -0.5559361053E-02  -0.1061104791E-01
  -0.7813783446E+00   0.2591224877E+01   0.6002547032E+00  -0.6340305986E-03   0.7140271983E-03   0.2546792036E-03   0.0000000000E+00   0.0000000000E+00   0.0000000000E+00  -0.7350439897E+00  -0.1028395815E+01  -0.6621934259E+00   0.3770552700E-01  -0.4270170438E-02  -0.1498738396E-01
  -0.7856850380E+00   0.2795320554E+01   0.6001415852E+00  -0.3177879999E-03   0.1912540324E-03   0.1415612338E-03   0.0000000000E+00   0.0000000000E+00   0.0000000000E+00   0.2464665929E+01   0.2318538112E+01   0.2512194869E+01   0.4769860783E-01  -0.1821032209E-02  -0.2089471137E-01
  -0.7878651620E+00   0.3000000000E+01   0.6000000240E+00   0.0000000000E+00   0.0000000000E+00   0.0000000000E+00   0.0000000000E+00   0.0000000000E+00   0.0000000000E+00  -0.9605410776E+01  -0.9643885746E+01  -0.9605398961E+01   0.5176358748E-01   0.9829397882E-05  -0.2410721519E-01
  -0.5875914968E+00   0.2798721388E+01   0.6001301376E+00  -0.2120407636E-03   0.1652980403E-03   0.1301136266E-03   0.0000000000E+00   0.0000000000E+00   0.0000000000E+00   0.2172895027E+01   0.2044013145E+01   0.2213135871E+01   0.3205455945E-01  -0.1538625898E-02  -0.1958202683E-01
  -0.5894951220E+00   0.3000000000E+01   0.6000000240E+00   0.0000000000E+00   0.0000000000E+00   0.0000000000E+00   0.0000000000E+00   0.0000000000E+00   0.0000000000E+00  -0.8475612493E+01  -0.8509549756E+01  -0.8475595959E+01   0.3509246081E-01   0.1707202898E-04  -0.2248545309E-01
  -0.3904179100E+00   0.2802244400E+01   0.6001189801E+00  -0.1171000124E-03   0.1444595366E-03   0.1189560511E-03   0.0000000000E+00   0.0000000000E+00   0.0000000000E+00   0.1920327042E+01   0.1804776858E+01   0.1953214146E+01   0.1745695065E-01  -0.1422048001E-02  -0.1840890648E-01
  -0.3923090400E+00   0.3000000000E+01   0.6000000240E+00   0.0000000000E+00   0.0000000000E+00   0.0000000000E+00   0.0000000000E+00   0.0000000000E+00   0.0000000000E+00  -0.7565316625E+01  -0.7595681680E+01  -0.7565338152E+01   0.1960846055E-01   0.8149161976E-05  -0.2088426531E-01
  -0.1899422802E+00   0.2803744162E+01   0.6001095351E+00  -0.2870915245E-04   0.1290719951E-03   0.1095111150E-03   0.0000000000E+00   0.0000000000E+00   0.0000000000E+00   0.1741742378E+01   0.1636214317E+01   0.1768513418E+01   0.4152184936E-02  -0.9744551543E-03  -0.1732207482E-01
  -0.1922578220E+00   0.3000000000E+01   0.6000000240E+00   0.0000000000E+00   0.0000000000E+00   0.0000000000E+00   0.0000000000E+00   0.0000000000E+00   0.0000000000E+00  -0.6823446714E+01  -0.6850739224E+01  -0.6823418781E+01   0.4443652924E-02   0.2604285942E-05  -0.1928982426E-01
   0.1406580770E-01   0.2803276796E+01   0.6001062861E+00   0.5730770292E-04   0.1242364368E-03   0.1062621431E-03   0.0000000000E+00   0.0000000000E+00   0.0000000000E+00   0.1672082289E+01   0.1570368809E+01   0.1696837639E+01  -0.7769175202E-02   0.2508145595E-03  -0.1680157905E-01
   0.1392890100E-01   0.3000000000E+01   0.6000000240E+00   0.0000000000E+00   0.0000000000E+00   0.0000000000E+00   0.0000000000E+00   0.0000000000E+00   0.0000000000E+00  -0.6557822092E+01  -0.6584028589E+01  -0.6557783487E+01  -0.1058289686E-01  -0.5926063625E-05  -0.1866996438E-01
  -0.5840133074E+00   0.2597878191E+01   0.6002351969E+00  -0.4236944002E-03   0.6153306373E-03   0.2351729282E-03   0.0000000000E+00   0.0000000000E+00   0.0000000000E+00  -0.6490532114E+00  -0.9059232802E+00  -0.5873658284E+00   0.2496552049E-01  -0.3340739477E-02  -0.1414205812E-01
  -0.3876363077E+00   0.2604511542E+01   0.6002157469E+00  -0.2387206949E-03   0.5350516002E-03   0.2157229500E-03   0.0000000000E+00   0.0000000000E+00   0.0000000000E+00  -0.5789668359E+00  -0.8061471935E+00  -0.5283764002E+00   0.1232663083E-01  -0.2781348320E-02  -0.1341893215E-01
  -0.1879851986E+00   0.2607218663E+01   0.6002001129E+00  -0.7052857236E-04   0.4786631698E-03   0.2000889191E-03   0.0000000000E+00   0.0000000000E+00   0.0000000000E+00  -0.5162700877E+00  -0.7222671586E+00  -0.4747126767E+00   0.2470554233E-02  -0.1738536427E-02  -0.1279923176E-01
   0.1467713219E-01   0.2606426662E+01   0.6001942812E+00   0.9089618888E-04   0.4603318435E-03   0.1942571714E-03   0.0000000000E+00   0.0000000000E+00   0.0000000000E+00  -0.4919600341E+00  -0.6905884117E+00  -0.4541777115E+00  -0.3810036619E-02   0.3407081981E-03  -0.1252132171E-01
  -0.5792698424E+00   0.2397320472E+01   0.6003234710E+00  -0.6466663918E-03   0.1293381578E-02   0.3234470424E-03   0.0000000000E+00   0.0000000000E+00   0.0000000000E+00   0.1170414009E+00  -0.2361036903E+00   0.1852113858E+00   0.1278754229E-01  -0.4628766795E-02  -0.1001867963E-01
  -0.3842081193E+00   0.2406887119E+01   0.6002951600E+00  -0.3744423077E-03   0.1118489444E-02   0.2951360415E-03   0.0000000000E+00   0.0000000000E+00   0.0000000000E+00   0.1097678365E+00  -0.1997666262E+00   0.1624350866E+00   0.2687070812E-02  -0.4055824524E-02  -0.9534228929E-02
  -0.1858205082E+00   0.2410716743E+01   0.6002730440E+00  -0.1281531514E-03   0.9982325352E-03   0.2730200497E-03   0.0000000000E+00   0.0000000000E+00   0.0000000000E+00   0.1150343703E+00  -0.1636834224E+00   0.1554307949E+00  -0.2177989884E-02  -0.2412233730E-02  -0.9141681884E-02
   0.1564833608E-01   0.2409762644E+01   0.6002652109E+00   0.1077030811E-03   0.9594243936E-03   0.2651868646E-03   0.0000000000E+00   0.0000000000E+00   0.0000000000E+00   0.1130663835E+00  -0.1556873615E+00   0.1483528089E+00  -0.1048090527E-02   0.4452114478E-03  -0.8986838721E-02
  -0.5738121535E+00   0.2196972874E+01   0.6004012673E+00  -0.8781225147E-03   0.2153903781E-02   0.4012433167E-03   0.0000000000E+00   0.0000000000E+00   0.0000000000E+00  -0.8570264718E-01  -0.5249670754E+00  -0.2235240691E-01  -0.4298915465E-02  -0.6104156748E-02  -0.6872502840E-02
  -0.3803310935E+00   0.2209385469E+01   0.6003623137E+00  -0.5215055352E-03   0.1849958723E-02   0.3622897296E-03   0.0000000000E+00   0.0000000000E+00   0.0000000000E+00  -0.6083970661E-01  -0.4419579797E+00  -0.1848534566E-01  -0.1088865456E-01  -0.5623250118E-02  -0.6479829226E-02
  -0.1840210153E+00   0.2215762863E+01   0.6003325717E+00  -0.1993823136E-03   0.1639132716E-02   0.3325476968E-03   0.0000000000E+00   0.0000000000E+00   0.0000000000E+00  -0.4486260018E-01  -0.3856503422E+00  -0.1869903243E-01  -0.8505007065E-02  -0.3165057231E-02  -0.6038028975E-02
   0.1677465389E-01   0.2213316141E+01   0.6003230243E+00   0.1095678917E-03   0.1578031048E-02   0.3230002675E-03   0.0000000000E+00   0.0000000000E+00   0.0000000000E+00  -0.3353740392E-01  -0.3615076050E+00  -0.1371417635E-01   0.2207845371E-02   0.5664449584E-03  -0.6082318874E-02
  -0.5679982159E+00   0.1996795724E+01   0.6004755500E+00  -0.1126214897E-02   0.3160783621E-02   0.4755260055E-03   0.0000000000E+00   0.0000000000E+00   0.0000000000E+00  -0.3160311597E-01  -0.5451917528E+00   0.1980969750E-01  -0.2855853415E-01  -0.8253778048E-02  -0.4570729982E-02
  -0.3768027986E+00   0.2013433905E+01   0.6004217038E+00  -0.6884305666E-03   0.2686945249E-02   0.4216797926E-03   0.0000000000E+00   0.0000000000E+00   0.0000000000E+00   0.1061101081E-01  -0.4308554032E+00   0.3222580356E-01  -0.3110064812E-01  -0.8272857164E-02  -0.4418679691E-02
  -0.1851795855E+00   0.2026911721E+01   0.6003798677E+00  -0.2923254892E-03   0.2348650561E-02   0.3798437499E-03   0.0000000000E+00   0.0000000000E+00   0.0000000000E+00   0.4441373929E-01  -0.3476135805E+00   0.4306913122E-01  -0.1809080072E-01  -0.4291948412E-02  -0.4043419804E-02
   0.1736310620E-01   0.2018528080E+01   0.6003701604E+00   0.9504120262E-04   0.2273649581E-02   0.3701364318E-03   0.0000000000E+00   0.0000000000E+00   0.0000000000E+00   0.4063376507E-01  -0.3346682687E+00   0.3245737171E-01   0.5476256357E-02   0.8826556657E-03  -0.4178391241E-02
  -0.5620871702E+00   0.1796838739E+01   0.6005485024E+00  -0.1372806216E-02   0.4289009276E-02   0.5484783713E-03   0.0000000000E+00   0.0000000000E+00   0.0000000000E+00  -0.3521413697E-01  -0.6172319386E+00  -0.3987782850E-02  -0.6003138158E-01  -0.1093637781E-01  -0.2648168516E-02
  -0.3727805960E+00   0.1816969433E+01   0.6004772739E+00  -0.8549140342E-03   0.3608742710E-02   0.4772499408E-03   0.0000000000E+00   0.0000000000E+00   0.0000000000E+00   0.2851312967E-01  -0.4645877884E+00   0.2092676023E-01  -0.5954652985E-01  -0.1132395932E-01  -0.2663628798E-02
  -0.1832203726E+00   0.1833420178E+01   0.6004242571E+00  -0.3882806095E-03   0.3130577738E-02   0.4242330946E-03   0.0000000000E+00   0.0000000000E+00   0.0000000000E+00   0.6450477906E-01  -0.3668746868E+00   0.2947233671E-01  -0.3197980299E-01  -0.5450900602E-02  -0.2861521943E-02
   0.1831214081E-01   0.1823368608E+01   0.6004125295E+00   0.6753880552E-04   0.3020938167E-02   0.4125054692E-03   0.0000000000E+00   0.0000000000E+00   0.0000000000E+00   0.5711820091E-01  -0.3536927732E+00   0.1382599075E-01   0.8040140235E-02   0.9914444157E-03  -0.2781012004E-02
  -0.5562269240E+00   0.1597365706E+01   0.6006234491E+00  -0.1633003001E-02   0.5516026297E-02   0.6234251468E-03   0.0000000000E+00   0.0000000000E+00   0.0000000000E+00  -0.2274287580E-01  -0.6667010598E+00  -0.1715856456E-01  -0.9527432273E-01  -0.1475780716E-01  -0.1091731404E-02
  -0.3684581775E+00   0.1620706122E+01   0.6005293783E+00  -0.1033123471E-02   0.4584351536E-02   0.5293543128E-03   0.0000000000E+00   0.0000000000E+00   0.0000000000E+00   0.8917641403E-01  -0.4466017791E+00   0.4376131788E-01  -0.9222945091E-01  -0.1535970515E-01  -0.1372651118E-02
  -0.1808039501E+00   0.1639513161E+01   0.6004635798E+00  -0.4949520711E-03   0.3943470621E-02   0.4635558108E-03   0.0000000000E+00   0.0000000000E+00   0.0000000000E+00   0.1151705411E+00  -0.3476157998E+00   0.3633667305E-01  -0.4582980469E-01  -0.6749612692E-02  -0.1160181130E-02
   0.1931726641E-01   0.1628616431E+01   0.6004500090E+00   0.3068241168E-04   0.3789761288E-02   0.4499850368E-03   0.0000000000E+00   0.0000000000E+00   0.0000000000E+00   0.1111488094E+00  -0.3286444915E+00   0.2246243137E-01   0.1228245504E-01   0.1318668336E-02  -0.1539366918E-02
  -0.5499908371E+00   0.1398762794E+01   0.6007007052E+00  -0.1907591128E-02   0.6821123931E-02   0.7006811953E-03   0.0000000000E+00   0.0000000000E+00   0.0000000000E+00   0.4799738128E-02  -0.7029336024E+00  -0.2511985724E-01  -0.1432064404E+00  -0.2013820097E-01   0.3704460124E-03
  -0.3633833050E+00   0.1425535860E+01   0.6005801597E+00  -0.1220715025E-02   0.5583709741E-02   0.5801356819E-03   0.0000000000E+00   0.0000000000E+00   0.0000000000E+00   0.1379994408E+00  -0.4383379191E+00   0.4502814902E-01  -0.1394580046E+00  -0.2050311406E-01   0.2538977038E-03
  -0.1794629342E+00   0.1449752887E+01   0.6004994288E+00  -0.6151592195E-03   0.4747347488E-02   0.4994048344E-03   0.0000000000E+00   0.0000000000E+00   0.0000000000E+00   0.2058705779E+00  -0.2813408527E+00   0.7619187746E-01  -0.6801917459E-01  -0.8120826273E-02  -0.1031865493E-02
   0.2019992084E-01   0.1435532237E+01   0.6004860063E+00  -0.2059016206E-04   0.4553936626E-02   0.4859823174E-03   0.0000000000E+00   0.0000000000E+00   0.0000000000E+00   0.1478236379E+00  -0.3117326503E+00   0.8988744357E-02   0.1244549784E-01   0.1660086889E-02  -0.6187247133E-03
  -0.5419847096E+00   0.1201202833E+01   0.6007731102E+00  -0.2180668566E-02   0.8179632647E-02   0.7730862434E-03   0.0000000000E+00   0.0000000000E+00   0.0000000000E+00   0.2412134262E-01  -0.7399261646E+00  -0.5409073729E-01  -0.1907910655E+00  -0.2919124213E-01   0.4855704291E-02
  -0.3562790218E+00   0.1233054630E+01   0.6006228438E+00  -0.1382476796E-02   0.6575700156E-02   0.6228197964E-03   0.0000000000E+00   0.0000000000E+00   0.0000000000E+00   0.2578312477E+00  -0.3597101581E+00   0.1003270603E+00  -0.1884533560E+00  -0.2461643665E-01   0.2760347390E-02
  -0.1703153118E+00   0.1250131671E+01   0.6005427876E+00  -0.6919067938E-03   0.5563801200E-02   0.5427635778E-03   0.0000000000E+00   0.0000000000E+00   0.0000000000E+00   0.2103561585E+00  -0.2975513684E+00   0.2686854949E-01  -0.8903552697E-01  -0.9290829584E-02   0.3249021416E-03
   0.2065337784E-01   0.1246719610E+01   0.6005231550E+00  -0.5575715519E-04   0.5285390293E-02   0.5231310208E-03   0.0000000000E+00   0.0000000000E+00   0.0000000000E+00   0.2262724639E+00  -0.2476529921E+00   0.3509321626E-01   0.1591366004E-01   0.1599734773E-02   0.4926154277E-03
  -0.5292168629E+00   0.1004729065E+01   0.6008318567E+00  -0.2512312949E-02   0.9525093153E-02   0.8318326891E-03   0.0000000000E+00   0.0000000000E+00   0.0000000000E+00   0.3506966793E+00  -0.4935932705E+00   0.1851029970E+00  -0.2566731588E+00  -0.4154925427E-01   0.8956925812E-03
  -0.3442539992E+00   0.1045091661E+01   0.6006665903E+00  -0.1574975152E-02   0.7501391178E-02   0.6665663017E-03   0.0000000000E+00   0.0000000000E+00   0.0000000000E+00   0.4025024475E+00  -0.2472141208E+00   0.1793450739E+00  -0.2300214560E+00  -0.2577751473E-01  -0.5450844004E-04
  -0.1647697569E+00   0.1068483109E+01   0.6005819686E+00  -0.8233068588E-03   0.6294478711E-02   0.5819445559E-03   0.0000000000E+00   0.0000000000E+00   0.0000000000E+00   0.3489203556E+00  -0.1672384833E+00   0.1158572114E+00  -0.9490272223E-01  -0.1118556503E-01   0.2133071613E-02
   0.1383620030E-01   0.1073046639E+01   0.6005623706E+00  -0.1754807029E-03   0.5936339135E-02   0.5623466040E-03   0.0000000000E+00   0.0000000000E+00   0.0000000000E+00   0.3700603751E+00  -0.1120587321E+00   0.1354149746E+00   0.3952881521E-01   0.5024683517E-02   0.2237144284E-02
  -0.5032613147E+00   0.8107577948E+00   0.6009489655E+00  -0.2745913658E-02   0.1072339082E-01   0.9489414537E-03   0.0000000000E+00   0.0000000000E+00   0.0000000000E+00   0.5426287382E+00  -0.3117570139E+00   0.3748360271E+00  -0.3527426893E+00  -0.5038599575E-01  -0.1689193846E-01
  -0.3254185791E+00   0.8715981263E+00   0.6007418286E+00  -0.1762020100E-02   0.8273245257E-02   0.7418046164E-03   0.0000000000E+00   0.0000000000E+00   0.0000000000E+00   0.3173195711E+00  -0.3499537674E+00   0.7299090120E-01  -0.2714123846E+00  -0.3167429551E-01  -0.3351988132E-02
  -0.1585159926E+00   0.9063955901E+00   0.6006284468E+00  -0.1020911579E-02   0.6909704134E-02   0.6284228409E-03   0.0000000000E+00   0.0000000000E+00   0.0000000000E+00   0.3787490891E+00  -0.1331733756E+00   0.1180054092E+00  -0.1146038471E+00  -0.1716538449E-01   0.6378661919E-02
   0.4933187486E-02   0.9151892375E+00   0.6005995748E+00  -0.3927695136E-03   0.6509215480E-02   0.5995508337E-03   0.0000000000E+00   0.0000000000E+00   0.0000000000E+00   0.3758361547E+00  -0.1081916369E+00   0.1043831624E+00   0.4815292571E-01   0.6298037550E-02   0.9455562976E-02
  -0.1356376397E+00   0.7452761878E+00   0.6006600519E+00  -0.1121653681E-02   0.7437800849E-02   0.6600278989E-03   0.0000000000E+00   0.0000000000E+00   0.0000000000E+00   0.1726288029E+00  -0.3684341404E+00  -0.1477321954E+00  -0.1306101123E+00  -0.2757231021E-01   0.1430164752E-01
  -0.5398433169E-03   0.7570752715E+00   0.6006208997E+00  -0.5398433169E-03   0.7075271456E-02   0.6208757442E-03   0.0000000000E+00   0.0000000000E+00   0.0000000000E+00   0.1194988342E+00  -0.3834661430E+00  -0.2127598976E+00   0.3426818012E-01   0.2784783356E-02   0.2114282001E-01
  -0.2717366471E+00   0.7083813658E+00   0.6007999545E+00  -0.1787509075E-02   0.8647512762E-02   0.7999305443E-03   0.0000000000E+00   0.0000000000E+00   0.0000000000E+00   0.3741973157E-02  -0.6845274529E+00  -0.2769296271E+00  -0.2886425878E+00  -0.5326299541E-01  -0.3210792847E-02
  -0.4066704270E+00   0.6426750885E+00   0.6010629707E+00  -0.2647881986E-02   0.1080028847E-01   0.1062946676E-02   0.0000000000E+00   0.0000000000E+00   0.0000000000E+00   0.8155894343E-01  -0.8707525379E+00  -0.1212307048E+00  -0.3778124828E+00  -0.7396033838E-01  -0.4664039658E-01
   0.6574000643E+00  -0.6265973513E+00   0.6030275829E+00   0.2612106344E-02   0.3791897874E-01   0.3027558923E-02   0.0000000000E+00   0.0000000000E+00   0.0000000000E+00   0.7351741493E-01  -0.1070221254E+01   0.8414258916E-01  -0.3518173894E+00   0.3793249338E-01   0.3886091127E-01
   0.7782601279E+00  -0.3971581081E+00   0.6029361348E+00   0.4139021916E-02   0.3340540092E-01   0.2936110769E-02   0.0000000000E+00   0.0000000000E+00   0.0000000000E+00  -0.3479587224E-02  -0.1335282738E+01   0.2221278112E+00  -0.2309428777E+00  -0.3735297605E-01   0.7379378857E-01
   0.6563537877E+00  -0.3357756782E+00   0.6031176727E+00   0.3720299690E-02   0.3377744079E-01   0.3117648661E-02   0.0000000000E+00   0.0000000000E+00   0.0000000000E+00  -0.1873465239E+01  -0.3438348867E+01  -0.1486143601E+01  -0.2400613149E+00  -0.7334796673E-02   0.9984330603E-01
   0.5301047749E+00  -0.4947112474E+00   0.6028865249E+00   0.2273875878E-02   0.3810629564E-01   0.2886500868E-02   0.0000000000E+00   0.0000000000E+00   0.0000000000E+00  -0.3659235835E+00  -0.1735690971E+01  -0.3798522419E+00  -0.3987400117E+00   0.7796361476E-01   0.9655123899E-01
   0.8499583969E+00  -0.1832869786E+00   0.6028013011E+00   0.5624986916E-02   0.2933471037E-01   0.2801277073E-02   0.0000000000E+00   0.0000000000E+00   0.0000000000E+00   0.4141575255E-01  -0.1495822844E+01   0.3599958253E+00  -0.8018944567E-01  -0.5562950255E-01   0.4402702232E-01
   0.7310705540E+00  -0.1582083715E+00   0.6030667122E+00   0.4964565969E-02   0.2959492654E-01   0.3066688211E-02   0.0000000000E+00   0.0000000000E+00   0.0000000000E+00  -0.2235450767E+01  -0.4028671611E+01  -0.1745050014E+01  -0.9221979317E-01  -0.6198933726E-01   0.4955205305E-01
   0.8779477006E+00   0.2384893429E-01   0.6025823372E+00   0.6294382638E-02   0.2554734529E-01   0.2582313196E-02   0.0000000000E+00   0.0000000000E+00   0.0000000000E+00   0.5846038098E-01  -0.1547211602E+01   0.4062426232E+00  -0.2373980557E-01  -0.5119211875E-01   0.5323291353E-02
   0.7554973993E+00   0.2562465784E-01   0.6028672066E+00   0.5497399272E-02   0.2562465784E-01   0.2867182613E-02   0.0000000000E+00   0.0000000000E+00   0.0000000000E+00  -0.1866513846E+01  -0.3695462188E+01  -0.1348058243E+01   0.1362596635E-01  -0.6672432115E-01   0.3942991896E-02
   0.9881523706E+00  -0.1831919290E+00   0.6025144876E+00   0.6437108597E-02   0.2846471599E-01   0.2514463573E-02   0.0000000000E+00   0.0000000000E+00   0.0000000000E+00   0.2896520132E-01  -0.1311553959E+01   0.1827780611E+00  -0.9217503773E-02  -0.2580362765E-01   0.3651937177E-01
   0.1014302710E+01   0.2446679429E-01   0.6023200674E+00   0.7125830108E-02   0.2529825529E-01   0.2320043356E-02   0.0000000000E+00   0.0000000000E+00   0.0000000000E+00  -0.3427913812E+00  -0.1744332037E+01  -0.1284007701E+00  -0.1486257142E-01  -0.2653436921E-01   0.8882884184E-02
   0.1144168996E+01  -0.1808265212E+00   0.6023433633E+00   0.7385156084E-02   0.2796384082E-01   0.2343339329E-02   0.0000000000E+00   0.0000000000E+00   0.0000000000E+00  -0.9531395357E-01  -0.1371395451E+01  -0.3154105198E-01   0.6277865335E-01   0.1884892234E-02   0.2101184904E-01
   0.1160791356E+01   0.2500081851E-01   0.6021175997E+00   0.7966355710E-02   0.2520555351E-01   0.2117575684E-02   0.0000000000E+00   0.0000000000E+00   0.0000000000E+00  -0.1039568132E-01  -0.1263820440E+01   0.1175529402E+00   0.6425262620E-02  -0.2547066938E-02   0.2646003784E-02
   0.1310884658E+01  -0.1779786218E+00   0.6022004451E+00   0.8380478281E-02   0.2762715323E-01   0.2200421089E-02   0.0000000000E+00   0.0000000000E+00   0.0000000000E+00  -0.6706096750E-02  -0.1208675732E+01   0.2014478876E-01   0.6030036735E-01   0.6581663383E-02   0.1498708259E-01
   0.1323695443E+01   0.2681909977E-01   0.6019690034E+00   0.8862752775E-02   0.2508998777E-01   0.1968979392E-02   0.0000000000E+00   0.0000000000E+00   0.0000000000E+00  -0.1136540462E+00  -0.1289357160E+01  -0.2950412621E-01  -0.4707426808E-02   0.1031982023E-01   0.2386746352E-02
   0.1483095785E+01  -0.1757110571E+00   0.6020622858E+00   0.9380475218E-02   0.2738145794E-01   0.2062261786E-02   0.0000000000E+00   0.0000000000E+00   0.0000000000E+00  -0.6463303366E-02  -0.1158526227E+01  -0.3930305426E-02   0.5637088700E-01   0.9054815997E-02   0.1047856323E-01
   0.1493160725E+01   0.2813565705E-01   0.6018276214E+00   0.9772424921E-02   0.2499739405E-01   0.1827597441E-02   0.0000000000E+00   0.0000000000E+00   0.0000000000E+00  -0.6436962481E-01  -0.1189304042E+01  -0.1122288857E-01  -0.3032499025E-02   0.1162518013E-01   0.2156891812E-02
   0.1658105174E+01  -0.1740457532E+00   0.6019079818E+00   0.1037148365E-01   0.2718796179E-01   0.1907957824E-02   0.0000000000E+00   0.0000000000E+00   0.0000000000E+00   0.4773813380E-01  -0.1057076611E+01   0.2772761281E-01   0.4664234535E-01   0.7562754945E-02   0.7590576521E-02
   0.1665137371E+01   0.2881635623E-01   0.6016726361E+00   0.1068147082E-01   0.2493972223E-01   0.1672612126E-02   0.0000000000E+00   0.0000000000E+00   0.0000000000E+00  -0.2860561125E-01  -0.1111125134E+01  -0.5415731740E-02  -0.3520270828E-02   0.1037297409E-01   0.2415210967E-02
   0.1834427488E+01  -0.1721645476E+00   0.6017235301E+00   0.1135195754E-01   0.2699914239E-01   0.1723506094E-02   0.0000000000E+00   0.0000000000E+00   0.0000000000E+00   0.3668527991E-02  -0.1052349922E+01  -0.4729905618E-01   0.2947872812E-01   0.1018926732E-02   0.5353703654E-02
   0.1837035263E+01   0.3165471744E-01   0.6014852445E+00   0.1158126302E-01   0.2487971844E-01   0.1485220455E-02   0.0000000000E+00   0.0000000000E+00   0.0000000000E+00  -0.6304139002E-01  -0.1098252235E+01  -0.7837428264E-01  -0.3234979872E-02   0.3048179717E-02   0.2620975552E-02
   0.2012325330E+01  -0.1719021919E+00   0.6014867118E+00   0.1232533024E-01   0.2678674707E-01   0.1486687797E-02   0.0000000000E+00   0.0000000000E+00   0.0000000000E+00   0.1939683770E+00  -0.7964849829E+00   0.8599073376E-01   0.1286929743E-01  -0.3886580450E-02   0.2152197391E-02
   0.2012493112E+01   0.3204425298E-01   0.6012446310E+00   0.1249311190E-01   0.2487163398E-01   0.1244606955E-02   0.0000000000E+00   0.0000000000E+00   0.0000000000E+00   0.1739325333E+00  -0.7924958778E+00   0.9537335818E-01  -0.3353240294E-02  -0.1912691801E-02   0.3135799084E-02
   0.9405974282E+00  -0.3938552967E+00   0.6026891324E+00   0.5076243165E-02   0.3164458933E-01   0.2689108414E-02   0.0000000000E+00   0.0000000000E+00   0.0000000000E+00   0.2810899425E+00  -0.1001415694E+01   0.3123393361E+00  -0.1139226972E+00  -0.1713341566E-01   0.3218858809E-01
   0.1113442863E+01  -0.3873306561E+00   0.6025519034E+00   0.6272282608E-02   0.3074579987E-01   0.2551879402E-02   0.0000000000E+00   0.0000000000E+00   0.0000000000E+00   0.1173006291E+00  -0.1202374628E+01   0.5175635750E-01   0.2893927502E-01   0.2351267161E-02   0.1564972548E-01
   0.1289934304E+01  -0.3817670566E+00   0.6024317830E+00   0.7464794483E-02   0.3016380240E-01   0.2431758988E-02   0.0000000000E+00   0.0000000000E+00   0.0000000000E+00   0.1648968832E+00  -0.1071499713E+01   0.9815121126E-01   0.4471999128E-01   0.4062254474E-02   0.9170087619E-02
   0.1468521172E+01  -0.3779500840E+00   0.6023075067E+00   0.8614592142E-02   0.2975677300E-01   0.2307482661E-02   0.0000000000E+00   0.0000000000E+00   0.0000000000E+00   0.1114774478E+00  -0.1073557120E+01   0.4145854947E-01   0.6121349436E-01   0.5159887522E-02   0.5209951131E-02
   0.1648624328E+01  -0.3754840691E+00   0.6021633746E+00   0.9721897754E-02   0.2942968394E-01   0.2163350621E-02   0.0000000000E+00   0.0000000000E+00   0.0000000000E+00   0.1188695126E+00  -0.1013176438E+01   0.4479111649E-01   0.6057992616E-01   0.3525377857E-02   0.2810367017E-02
   0.1829813687E+01  -0.3737398194E+00   0.6019878502E+00   0.1079770696E-01   0.2911080860E-01   0.1987826243E-02   0.0000000000E+00   0.0000000000E+00   0.0000000000E+00   0.6777558363E-01  -0.1015063361E+01  -0.2377345035E-01   0.4347389277E-01  -0.2083915094E-02   0.9879735716E-03
   0.2011852583E+01  -0.3734160629E+00   0.6017643982E+00   0.1185258254E-01   0.2871215714E-01   0.1764374235E-02   0.0000000000E+00   0.0000000000E+00   0.0000000000E+00   0.2305285925E+00  -0.7951691598E+00   0.9569742950E-01   0.2411436403E-01  -0.5716717091E-02  -0.4239810212E-02
   0.8820806544E+00  -0.6074986772E+00   0.6029940213E+00   0.3963569378E-02   0.3485998377E-01   0.2993997328E-02   0.0000000000E+00   0.0000000000E+00   0.0000000000E+00   0.4580212971E-01  -0.1176327727E+01   0.4965396159E-01  -0.2061164136E+00   0.3349999334E-02   0.4487261616E-02
   0.1078419143E+01  -0.5927742295E+00   0.6028722376E+00   0.5304512555E-02   0.3348956753E-01   0.2872213554E-02   0.0000000000E+00   0.0000000000E+00   0.0000000000E+00   0.1303461436E-01  -0.1261506484E+01  -0.5288748075E-01  -0.1219731765E-01  -0.4263740767E-04   0.1867810741E-02
   0.1266351831E+01  -0.5834646095E+00   0.6027556406E+00   0.6559031338E-02   0.3266931850E-01   0.2755616564E-02   0.0000000000E+00   0.0000000000E+00   0.0000000000E+00  -0.1728414442E-01  -0.1231941364E+01  -0.8138400565E-01   0.2985513484E-01   0.1146336248E-02  -0.6035984383E-03
   0.1452052190E+01  -0.5783106117E+00   0.6026268914E+00   0.7747959850E-02   0.3210842328E-01   0.2626867356E-02   0.0000000000E+00   0.0000000000E+00   0.0000000000E+00   0.1075218057E-01  -0.1164420170E+01  -0.6107037031E-01   0.6390610968E-01  -0.1974852827E-03  -0.1089707506E-02
   0.1637746943E+01  -0.5755456722E+00   0.6024800144E+00   0.8892433145E-02   0.3166162581E-01   0.2479990394E-02   0.0000000000E+00   0.0000000000E+00   0.0000000000E+00   0.4185237443E-01  -0.1089898708E+01  -0.3716252917E-01   0.7398720936E-01  -0.1059626406E-02  -0.1948135897E-02
   0.1824094382E+01  -0.5739702706E+00   0.6023065185E+00   0.1000842222E-01   0.3122662244E-01   0.2306494517E-02   0.0000000000E+00   0.0000000000E+00   0.0000000000E+00   0.3755144320E-01  -0.1053291806E+01  -0.5725845787E-01   0.5975979798E-01  -0.4261530512E-02  -0.3135235361E-02
   0.2011106550E+01  -0.5733825246E+00   0.6020990921E+00   0.1110655025E-01   0.3067574144E-01   0.2099068082E-02   0.0000000000E+00   0.0000000000E+00   0.0000000000E+00   0.1697079070E+00  -0.8796338168E+00   0.4497804115E-01   0.4161834680E-01  -0.5246876719E-02  -0.9062801409E-02
   0.1818778144E+01  -0.7725552217E+00   0.6026559901E+00   0.9038073784E-02   0.3334010734E-01   0.2655966137E-02   0.0000000000E+00   0.0000000000E+00   0.0000000000E+00   0.8141405889E-01  -0.1013963899E+01  -0.7892096863E-02   0.5973626320E-01  -0.5725735474E-02  -0.4871393664E-02
   0.2010162971E+01  -0.7721366991E+00   0.6024659133E+00   0.1016297149E-01   0.3268830891E-01   0.2465889279E-02   0.0000000000E+00   0.0000000000E+00   0.0000000000E+00   0.1041581900E+00  -0.9660730058E+00  -0.1722882830E-02   0.4354825311E-01  -0.4395774159E-02  -0.1045662095E-01
   0.1814738076E+01  -0.9704990947E+00   0.6030404192E+00   0.8098286052E-02   0.3545910534E-01   0.3040395206E-02   0.0000000000E+00   0.0000000000E+00   0.0000000000E+00   0.8373830281E-01  -0.1007669825E+01   0.1599727785E-01   0.3533925008E-01  -0.2136785633E-02  -0.6655728323E-02
   0.2009218615E+01  -0.9701993309E+00   0.6028650229E+00   0.9218615410E-02   0.3475226910E-01   0.2864998906E-02   0.0000000000E+00   0.0000000000E+00   0.0000000000E+00   0.2811219513E-01  -0.1052704777E+01  -0.4580924195E-01   0.2585133841E-01   0.7963766839E-03  -0.1126897572E-01
   0.1811915022E+01  -0.1168079676E+01   0.6034516289E+00   0.7269721939E-02   0.3758245434E-01   0.3451604884E-02   0.0000000000E+00   0.0000000000E+00   0.0000000000E+00   0.6452436939E-01  -0.1017032706E+01   0.2509115385E-01   0.1269007071E-01   0.1067907280E-03  -0.6391138890E-02
   0.2008365447E+01  -0.1167879078E+01   0.6032872864E+00   0.8365447261E-02   0.3685846182E-01   0.3287262422E-02   0.0000000000E+00   0.0000000000E+00   0.0000000000E+00  -0.2332853116E-01  -0.1105126267E+01  -0.6134766031E-01   0.8739756277E-02   0.3951122582E-02  -0.9824281278E-02
   0.1809955611E+01  -0.1365474020E+01   0.6038817531E+00   0.6543770971E-02   0.3970691046E-01   0.3881729126E-02   0.0000000000E+00   0.0000000000E+00   0.0000000000E+00   0.3944217924E-01  -0.1030397279E+01   0.2586175241E-01  -0.3420522941E-02   0.1109025009E-02  -0.5364589076E-02
   0.2007610037E+01  -0.1365359382E+01   0.6037241446E+00   0.7610037409E-02   0.3899184759E-01   0.3724120641E-02   0.0000000000E+00   0.0000000000E+00   0.0000000000E+00  -0.5104250997E-01  -0.1127817910E+01  -0.5862074700E-01  -0.2558736470E-02   0.5117678503E-02  -0.7538847752E-02
   0.1808528730E+01  -0.1562782250E+01   0.6043277995E+00   0.5898420378E-02   0.4182819015E-01   0.4327775534E-02   0.0000000000E+00   0.0000000000E+00   0.0000000000E+00   0.1433215882E-01  -0.1043349601E+01   0.2130876817E-01  -0.1382386654E-01   0.1471805800E-02  -0.4322349394E-02
   0.2006936821E+01  -0.1562746415E+01   0.6041727800E+00   0.6936821454E-02   0.4113637468E-01   0.4172756010E-02   0.0000000000E+00   0.0000000000E+00   0.0000000000E+00  -0.6217573379E-01  -0.1129869091E+01  -0.4736374635E-01  -0.8772615337E-02   0.5100156661E-02  -0.5393790688E-02
   0.1807403690E+01  -0.1760057637E+01   0.6047891168E+00   0.5312810216E-02   0.4394166287E-01   0.4789092768E-02   0.0000000000E+00   0.0000000000E+00   0.0000000000E+00  -0.9208951255E-02  -0.1054426203E+01   0.1346794742E-01  -0.1985304304E-01   0.1443736839E-02  -0.3566898182E-02
   0.2006326188E+01  -0.1760098904E+01   0.6046333293E+00   0.6326188129E-02   0.4327788558E-01   0.4633305292E-02   0.0000000000E+00   0.0000000000E+00   0.0000000000E+00  -0.6389590652E-01  -0.1119534397E+01  -0.3372186084E-01  -0.1147388696E-01   0.4395726542E-02  -0.3804680835E-02
   0.1806441403E+01  -0.1957327131E+01   0.6052655004E+00   0.4769063159E-02   0.4604315906E-01   0.5265476412E-02   0.0000000000E+00   0.0000000000E+00   0.0000000000E+00  -0.2940414383E-01  -0.1061920952E+01   0.5298911829E-02  -0.2278867469E-01   0.1186113978E-02  -0.3145182628E-02
   0.2005759983E+01  -0.1957448002E+01   0.6051066362E+00   0.5759982686E-02   0.4540562808E-01   0.5106612210E-02   0.0000000000E+00   0.0000000000E+00   0.0000000000E+00  -0.6075493081E-01  -0.1102393642E+01  -0.2029402416E-01  -0.1217854732E-01   0.3383495294E-02  -0.2865411983E-02
   0.1805566617E+01  -0.2154602161E+01   0.6057567158E+00   0.4251906906E-02   0.4812968928E-01   0.5756691826E-02   0.0000000000E+00   0.0000000000E+00   0.0000000000E+00  -0.4667514752E-01  -0.1066380119E+01  -0.2122651189E-02  -0.2334412012E-01   0.7661689444E-03  -0.3023485771E-02
   0.2005222005E+01  -0.2154808438E+01   0.6055935563E+00   0.5222004972E-02   0.4751285156E-01   0.5593532251E-02   0.0000000000E+00   0.0000000000E+00   0.0000000000E+00  -0.5675483561E-01  -0.1083453800E+01  -0.8878246109E-02  -0.1163210159E-01   0.2289256251E-02  -0.2551199923E-02
   0.1804745728E+01  -0.2351883959E+01   0.6062620393E+00   0.3745608042E-02   0.5019991126E-01   0.6262015335E-02   0.0000000000E+00   0.0000000000E+00   0.0000000000E+00  -0.6185815063E-01  -0.1069051024E+01  -0.8438370685E-02  -0.2149446076E-01   0.9529647094E-04  -0.3006361948E-02
   0.2004695919E+01  -0.2352181547E+01   0.6060944433E+00   0.4695919291E-02   0.4959691337E-01   0.6094419306E-02   0.0000000000E+00   0.0000000000E+00   0.0000000000E+00  -0.5530091387E-01  -0.1067302853E+01  -0.1051692730E-02  -0.9866092407E-02   0.1162014257E-02  -0.2630899661E-02
   0.1803975255E+01  -0.2549166237E+01   0.6067799244E+00   0.3233345233E-02   0.5225440339E-01   0.6779900447E-02   0.0000000000E+00   0.0000000000E+00   0.0000000000E+00  -0.7204062302E-01  -0.1067596947E+01  -0.9766401099E-02  -0.1744448616E-01  -0.1052934306E-02  -0.3053459930E-02
   0.2004164432E+01  -0.2549559009E+01   0.6066089449E+00   0.4164431989E-02   0.5165921117E-01   0.6608920907E-02   0.0000000000E+00   0.0000000000E+00   0.0000000000E+00  -0.5558759856E-01  -0.1054310243E+01   0.5597625058E-02  -0.6379051185E-02  -0.9867336860E-04  -0.3163561657E-02
   0.1803263318E+01  -0.2746436826E+01   0.6073091549E+00   0.2694498464E-02   0.5429578447E-01   0.7309130938E-02   0.0000000000E+00   0.0000000000E+00   0.0000000000E+00  -0.8353922764E-01  -0.1068232200E+01  -0.1002540606E-01  -0.8252490952E-02  -0.2940494134E-02  -0.2950272127E-02
   0.2003604389E+01  -0.2746924607E+01   0.6071369138E+00   0.3604389190E-02   0.5370477266E-01   0.7136889753E-02   0.0000000000E+00   0.0000000000E+00   0.0000000000E+00  -0.6816447806E-01  -0.1055368117E+01   0.3175317257E-02   0.1650453711E-02  -0.1612430134E-02  -0.3371014512E-02
   0.1802557048E+01  -0.2943670887E+01   0.6078457860E+00   0.2104218321E-02   0.5632911345E-01   0.7845761970E-02   0.0000000000E+00   0.0000000000E+00   0.0000000000E+00  -0.8771564035E-01  -0.1064117798E+01  -0.1565165211E-02  -0.9418342107E-03  -0.6236018631E-02  -0.1926449959E-02
   0.2002994526E+01  -0.2944258687E+01   0.6076716030E+00   0.2994526059E-02   0.5574131309E-01   0.7671578988E-02   0.0000000000E+00   0.0000000000E+00   0.0000000000E+00  -0.7469345176E-01  -0.1053994757E+01   0.8094632818E-02   0.7411918613E-02  -0.3830940525E-02  -0.2382597063E-02
   0.1627960735E+01  -0.7741203333E+00   0.6028257992E+00   0.7897665293E-02   0.3387260169E-01   0.2825775246E-02   0.0000000000E+00   0.0000000000E+00   0.0000000000E+00   0.5615383018E-01  -0.1071342704E+01  -0.2040454626E-01   0.7219572050E-01  -0.5115133907E-02  -0.3466374528E-02
   0.1620706746E+01  -0.9719860357E+00   0.6032073017E+00   0.6968205517E-02   0.3606631432E-01   0.3207277680E-02   0.0000000000E+00   0.0000000000E+00   0.0000000000E+00   0.3590900209E-01  -0.1078069585E+01  -0.2023220279E-01   0.4118393173E-01  -0.3238990606E-02  -0.5403909630E-02
   0.1615782874E+01  -0.1169417426E+01   0.6036149863E+00   0.6169333963E-02   0.3824181427E-01   0.3614962337E-02   0.0000000000E+00   0.0000000000E+00   0.0000000000E+00   0.9124064067E-02  -0.1086273036E+01  -0.2032562252E-01   0.1363258384E-01  -0.2058495371E-02  -0.5019303019E-02
   0.1612507034E+01  -0.1366616831E+01   0.6040413743E+00   0.5476524067E-02   0.4039801863E-01   0.4041350261E-02   0.0000000000E+00   0.0000000000E+00   0.0000000000E+00  -0.1203432363E-01  -0.1088440237E+01  -0.1774395285E-01  -0.6922394449E-02  -0.1405097641E-02  -0.4075852452E-02
   0.1610245914E+01  -0.1563709018E+01   0.6044843518E+00   0.4861564264E-02   0.4253435184E-01   0.4484327832E-02   0.0000000000E+00   0.0000000000E+00   0.0000000000E+00  -0.2679047268E-01  -0.1085461849E+01  -0.1404060679E-01  -0.2140660761E-01  -0.8469922843E-03  -0.3237008022E-02
   0.1608556003E+01  -0.1760762316E+01   0.6049440054E+00   0.4302833213E-02   0.4465045360E-01   0.4943981432E-02   0.0000000000E+00   0.0000000000E+00   0.0000000000E+00  -0.3860510175E-01  -0.1080784113E+01  -0.1167330157E-01  -0.3085831555E-01  -0.3614130005E-03  -0.2751836302E-02
   0.1607169320E+01  -0.1957809757E+01   0.6054203681E+00   0.3782920123E-02   0.4674618303E-01   0.5420344118E-02   0.0000000000E+00   0.0000000000E+00   0.0000000000E+00  -0.4738981295E-01  -0.1074208800E+01  -0.9301068390E-02  -0.3618416274E-01  -0.4551394819E-05  -0.2594953002E-02
   0.1605944428E+01  -0.2154865072E+01   0.6059131918E+00   0.3287708403E-02   0.4882187839E-01   0.5913167775E-02   0.0000000000E+00   0.0000000000E+00   0.0000000000E+00  -0.5551748802E-01  -0.1067900635E+01  -0.7810977651E-02  -0.3800497623E-01   0.1192126396E-03  -0.2714953200E-02
   0.1604826834E+01  -0.2351930082E+01   0.6064216154E+00   0.2802274310E-02   0.5087858804E-01   0.6421591354E-02   0.0000000000E+00   0.0000000000E+00   0.0000000000E+00  -0.6388529481E-01  -0.1062804631E+01  -0.6992856647E-02  -0.3618989476E-01  -0.2473355517E-03  -0.2951364633E-02
   0.1603823120E+01  -0.2548999799E+01   0.6069437550E+00   0.2310209608E-02   0.5291842079E-01   0.6943730950E-02   0.0000000000E+00   0.0000000000E+00   0.0000000000E+00  -0.7356359653E-01  -0.1060373427E+01  -0.7206201228E-02  -0.3150341051E-01  -0.1483143186E-02  -0.3110211868E-02
   0.1602967177E+01  -0.2746052910E+01   0.6074781287E+00   0.1793536673E-02   0.5494481986E-01   0.7478104724E-02   0.0000000000E+00   0.0000000000E+00   0.0000000000E+00  -0.8029528208E-01  -0.1056128594E+01  -0.2113383467E-02  -0.2130189505E-01  -0.3909734140E-02  -0.3652587887E-02
   0.1602170680E+01  -0.2943037002E+01   0.6080244663E+00   0.1226639955E-02   0.5696299806E-01   0.8024442337E-02   0.0000000000E+00   0.0000000000E+00   0.0000000000E+00  -0.9390169314E-01  -0.1059725562E+01   0.5745586163E-03  -0.1254753801E-01  -0.8681872962E-02  -0.3381020194E-02
   0.1437479673E+01  -0.7773677041E+00   0.6029755093E+00   0.6732042982E-02   0.3442383492E-01   0.2975485291E-02   0.0000000000E+00   0.0000000000E+00   0.0000000000E+00   0.4251600013E-01  -0.1117241798E+01  -0.2317746940E-01   0.5896866584E-01  -0.5400953712E-02  -0.2547111953E-02
   0.1426875296E+01  -0.9754362212E+00   0.6033590947E+00   0.5821055894E-02   0.3670011879E-01   0.3359070688E-02   0.0000000000E+00   0.0000000000E+00   0.0000000000E+00   0.2854314470E-01  -0.1108883235E+01  -0.1426621669E-01   0.2296731030E-01  -0.3601849943E-02  -0.4686456156E-02
   0.1419789965E+01  -0.1172778398E+01   0.6037668430E+00   0.5060014752E-02   0.3893611192E-01   0.3766819027E-02   0.0000000000E+00   0.0000000000E+00   0.0000000000E+00   0.3646152793E-02  -0.1107104295E+01  -0.1169619975E-01  -0.4639044349E-02  -0.2523739246E-02  -0.4185594791E-02
   0.1415162259E+01  -0.1369687651E+01   0.6041916889E+00   0.4406859372E-02   0.4113235879E-01   0.4191664902E-02   0.0000000000E+00   0.0000000000E+00   0.0000000000E+00  -0.1841705865E-01  -0.1103026301E+01  -0.1074132335E-01  -0.2385074395E-01  -0.1809640642E-02  -0.3220572861E-02
   0.1412041283E+01  -0.1566382805E+01   0.6046324953E+00   0.3827072860E-02   0.4329117522E-01   0.4632471341E-02   0.0000000000E+00   0.0000000000E+00   0.0000000000E+00  -0.3384134914E-01  -0.1094716467E+01  -0.9352913163E-02  -0.3670433707E-01  -0.1106669721E-02  -0.2444074407E-02
   0.1409768080E+01  -0.1762992241E+01   0.6050905395E+00   0.3298969793E-02   0.4541541907E-01   0.5090515529E-02   0.0000000000E+00   0.0000000000E+00   0.0000000000E+00  -0.4728165590E-01  -0.1086697515E+01  -0.1026897395E-01  -0.4468571417E-01  -0.4308221305E-03  -0.2104540248E-02
   0.1407944383E+01  -0.1959579408E+01   0.6055665402E+00   0.2805773399E-02   0.4750806180E-01   0.5566516240E-02   0.0000000000E+00   0.0000000000E+00   0.0000000000E+00  -0.5699258324E-01  -0.1077172848E+01  -0.1024318335E-01  -0.4864075738E-01   0.1025857470E-03  -0.2131642596E-02
   0.1406362801E+01  -0.2156171894E+01   0.6060607760E+00   0.2334860622E-02   0.4957237552E-01   0.6060751983E-02   0.0000000000E+00   0.0000000000E+00   0.0000000000E+00  -0.6668838426E-01  -0.1069566886E+01  -0.1125008129E-01  -0.4920399514E-01   0.3596635205E-03  -0.2479301089E-02
   0.1404948829E+01  -0.2352777872E+01   0.6065728355E+00   0.1872418580E-02   0.5161198840E-01   0.6572811516E-02   0.0000000000E+00   0.0000000000E+00   0.0000000000E+00  -0.7494968017E-01  -0.1062327956E+01  -0.1061821612E-01  -0.4614795637E-01  -0.1165608972E-04  -0.3095606891E-02
   0.1403716623E+01  -0.2549386739E+01   0.6071010653E+00   0.1402553370E-02   0.5363107064E-01   0.7101041262E-02   0.0000000000E+00   0.0000000000E+00   0.0000000000E+00  -0.9019251396E-01  -0.1064102041E+01  -0.1603936868E-01  -0.4012995155E-01  -0.1470036153E-02  -0.3453067691E-02
   0.1402722409E+01  -0.2745950216E+01   0.6076431161E+00   0.9091391628E-03   0.5563450382E-01   0.7643092097E-02   0.0000000000E+00   0.0000000000E+00   0.0000000000E+00  -0.8321282036E-01  -0.1045762825E+01   0.2609524203E-02  -0.2966509582E-01  -0.4280567808E-02  -0.4876984118E-02
   0.1401845482E+01  -0.2942371829E+01   0.6082036538E+00   0.3735120416E-03   0.5762817054E-01   0.8203629811E-02   0.0000000000E+00   0.0000000000E+00   0.0000000000E+00  -0.1166665968E+00  -0.1066397101E+01  -0.9279831770E-02  -0.2081342429E-01  -0.9944869075E-02  -0.5632756550E-02
   0.1246440058E+01  -0.7841037974E+00   0.6031125617E+00   0.5530248241E-02   0.3511471862E-01   0.3112537684E-02   0.0000000000E+00   0.0000000000E+00   0.0000000000E+00   0.3410655447E-02  -0.1183718390E+01  -0.4696778013E-01   0.2445152709E-01  -0.5161252464E-02  -0.2124800993E-02
   0.1232500196E+01  -0.9829236229E+00   0.6034997106E+00   0.4649995509E-02   0.3748429709E-01   0.3499686587E-02   0.0000000000E+00   0.0000000000E+00   0.0000000000E+00  -0.4805155184E-03  -0.1156418511E+01  -0.2577410672E-01  -0.1475592669E-01  -0.3409487891E-02  -0.4136371391E-02
   0.1223423420E+01  -0.1180232495E+01   0.6039076318E+00   0.3938730061E-02   0.3978016471E-01   0.3907607770E-02   0.0000000000E+00   0.0000000000E+00   0.0000000000E+00  -0.2697904848E-01  -0.1147663663E+01  -0.2472554665E-01  -0.4048417508E-01  -0.2162226025E-02  -0.3555112492E-02
   0.1217595863E+01  -0.1376610947E+01   0.6043300567E+00   0.3334452698E-02   0.4200773280E-01   0.4330032685E-02   0.0000000000E+00   0.0000000000E+00   0.0000000000E+00  -0.4574219329E-01  -0.1132351611E+01  -0.2220231105E-01  -0.5581827090E-01  -0.1060095394E-02  -0.2426583044E-02
   0.1213713625E+01  -0.1572522789E+01   0.6047674368E+00   0.2796394605E-02   0.4417500057E-01   0.4767412767E-02   0.0000000000E+00   0.0000000000E+00   0.0000000000E+00  -0.5748284359E-01  -0.1113725429E+01  -0.1986609182E-01  -0.6403940829E-01   0.1222531687E-03  -0.1632599272E-02
   0.1210914118E+01  -0.1768239028E+01   0.6052227701E+00   0.2304057843E-02   0.4629003216E-01   0.5222746085E-02   0.0000000000E+00   0.0000000000E+00   0.0000000000E+00  -0.6892948772E-01  -0.1098214151E+01  -0.2126383616E-01  -0.6715488194E-01   0.1250496512E-02  -0.1390141871E-02
   0.1208686688E+01  -0.1963891687E+01   0.6056976803E+00   0.1841528394E-02   0.4836016258E-01   0.5697656345E-02   0.0000000000E+00   0.0000000000E+00   0.0000000000E+00  -0.7648087471E-01  -0.1082310109E+01  -0.2108891111E-01  -0.6607013333E-01   0.2098636003E-02  -0.1587625496E-02
   0.1206772592E+01  -0.2159538643E+01   0.6061931377E+00   0.1398111933E-02   0.5039249697E-01   0.6193113731E-02   0.0000000000E+00   0.0000000000E+00   0.0000000000E+00  -0.8571949006E-01  -0.1071256708E+01  -0.2297212911E-01  -0.6169194603E-01   0.2553356885E-02  -0.2189945501E-02
   0.1205083568E+01  -0.2355196053E+01   0.6067094144E+00   0.9614979859E-03   0.5239385705E-01   0.6709390446E-02   0.0000000000E+00   0.0000000000E+00   0.0000000000E+00  -0.9329551583E-01  -0.1061329025E+01  -0.2217247393E-01  -0.5395847090E-01   0.2240144517E-02  -0.3290008859E-02
   0.1203642442E+01  -0.2550841350E+01   0.6072454697E+00   0.5168416925E-03   0.5437085969E-01   0.7245445680E-02   0.0000000000E+00   0.0000000000E+00   0.0000000000E+00  -0.1182635208E+00  -0.1071432780E+01  -0.3672146502E-01  -0.4263718074E-01   0.6860809706E-03  -0.3966647833E-02
   0.1202519943E+01  -0.2746394696E+01   0.6077975820E+00   0.4785282194E-04   0.5633014389E-01   0.7797557987E-02   0.0000000000E+00   0.0000000000E+00   0.0000000000E+00  -0.1018846168E+00  -0.1043544057E+01  -0.8867223043E-02  -0.2863546996E-01  -0.2434257828E-02  -0.6134505197E-02
   0.1201585654E+01  -0.2941721524E+01   0.6083738557E+00  -0.4477460979E-03   0.5827847627E-01   0.8373831653E-02   0.0000000000E+00   0.0000000000E+00   0.0000000000E+00  -0.1578796612E+00  -0.1084913857E+01  -0.3973962085E-01  -0.1685915614E-01  -0.8442097891E-02  -0.7662505843E-02
   0.1052634424E+01  -0.7969815315E+00   0.6032459626E+00   0.4282544212E-02   0.3611127750E-01   0.3245938599E-02   0.0000000000E+00   0.0000000000E+00   0.0000000000E+00   0.1214643691E-01  -0.1195469658E+01  -0.1414699588E-01  -0.2859403044E-01  -0.7812034002E-02  -0.1814353154E-02
   0.1035992192E+01  -0.9971546420E+00   0.6036340941E+00   0.3451391717E-02   0.3858286804E-01   0.3634070076E-02   0.0000000000E+00   0.0000000000E+00   0.0000000000E+00   0.1478262495E-01  -0.1149298639E+01   0.1243808597E-01  -0.7475199681E-01  -0.3850509211E-02  -0.3046843584E-02
   0.1025623842E+01  -0.1194208275E+01   0.6040374844E+00   0.2806591874E-02   0.4092203544E-01   0.4037460381E-02   0.0000000000E+00   0.0000000000E+00   0.0000000000E+00  -0.3394815577E-01  -0.1151307265E+01  -0.1265875324E-01  -0.9851611668E-01  -0.1073300888E-02  -0.2930416179E-02
   0.1019100166E+01  -0.1389482422E+01   0.6044521162E+00   0.2262445732E-02   0.4314799841E-01   0.4452092184E-02   0.0000000000E+00   0.0000000000E+00   0.0000000000E+00  -0.5397911563E-01  -0.1127291584E+01  -0.1727086885E-01  -0.1064638302E+00   0.1559257522E-02  -0.1635885559E-02
   0.1014774781E+01  -0.1583912367E+01   0.6048816091E+00   0.1773580624E-02   0.4528106286E-01   0.4881585074E-02   0.0000000000E+00   0.0000000000E+00   0.0000000000E+00  -0.6679787158E-01  -0.1101779546E+01  -0.2174878746E-01  -0.1052515783E+00   0.3786438729E-02  -0.9488751622E-03
   0.1011646001E+01  -0.1778001664E+01   0.6053311226E+00   0.1322710727E-02   0.4733932593E-01   0.5331098636E-02   0.0000000000E+00   0.0000000000E+00   0.0000000000E+00  -0.7592303533E-01  -0.1077991778E+01  -0.2512023707E-01  -0.9821120975E-01   0.5527711473E-02  -0.8590758348E-03
   0.1009145417E+01  -0.1971978266E+01   0.6058032690E+00   0.8951767907E-03   0.4933778425E-01   0.5803244960E-02   0.0000000000E+00   0.0000000000E+00   0.0000000000E+00  -0.7934130273E-01  -0.1054027545E+01  -0.2354715750E-01  -0.8709903666E-01   0.6581035041E-02  -0.1250245891E-02
   0.1006996147E+01  -0.2165932779E+01   0.6062994870E+00   0.4826674805E-03   0.5128991124E-01   0.6299462983E-02   0.0000000000E+00   0.0000000000E+00   0.0000000000E+00  -0.8372094267E-01  -0.1036105224E+01  -0.2192249377E-01  -0.7356988233E-01   0.6998145646E-02  -0.2085593109E-02
   0.1005110274E+01  -0.2359888151E+01   0.6068206104E+00   0.7487388530E-04   0.5320731907E-01   0.6820586427E-02   0.0000000000E+00   0.0000000000E+00   0.0000000000E+00  -0.8235335310E-01  -0.1016569710E+01  -0.1227515871E-01  -0.5852273913E-01   0.6278552778E-02  -0.3566174561E-02
   0.1003517962E+01  -0.2553813182E+01   0.6073662635E+00  -0.3409580371E-03   0.5509975771E-01   0.7366239546E-02   0.0000000000E+00   0.0000000000E+00   0.0000000000E+00  -0.9773750015E-01  -0.1016738735E+01  -0.1581424818E-01  -0.4102429091E-01   0.3964871105E-02  -0.4665216069E-02
   0.1002293350E+01  -0.2747617351E+01   0.6079314030E+00  -0.7835600849E-03   0.5697525863E-01   0.7931378974E-02   0.0000000000E+00   0.0000000000E+00   0.0000000000E+00  -0.6649163035E-01  -0.9741935429E+00   0.2806924581E-01  -0.2493389610E-01  -0.4575957208E-03  -0.6850983015E-02
   0.1001341023E+01  -0.2941159219E+01   0.6085208579E+00  -0.1236396656E-02   0.5884078071E-01   0.8520833947E-02   0.0000000000E+00   0.0000000000E+00   0.0000000000E+00  -0.1271648008E+00  -0.1022156240E+01  -0.1038836725E-01  -0.1349797077E-01  -0.6535449248E-02  -0.8091362735E-02
   0.8521497139E+00  -0.8184535778E+00   0.6033769679E+00   0.2996731871E-02   0.3772804423E-01   0.3376943910E-02   0.0000000000E+00   0.0000000000E+00   0.0000000000E+00  -0.2368130547E+00  -0.1411717154E+01  -0.2102923050E+00  -0.1973693897E+00   0.5944745588E-02  -0.1529853214E-02
   0.8351058942E+00  -0.1019855979E+01   0.6037455031E+00   0.2236364184E-02   0.4025566131E-01   0.3745479079E-02   0.0000000000E+00   0.0000000000E+00   0.0000000000E+00  -0.1140581366E+00  -0.1245589439E+01  -0.9395277153E-01  -0.2086677279E+00   0.1093216802E-01  -0.7493501895E-03
   0.8249887147E+00  -0.1215677796E+01   0.6041337127E+00   0.1676789659E-02   0.4255312392E-01   0.4133688693E-02   0.0000000000E+00   0.0000000000E+00   0.0000000000E+00  -0.1454273123E+00  -0.1223614472E+01  -0.1181535915E+00  -0.2021650769E+00   0.1266885511E-01  -0.1870201872E-02
   0.8187034683E+00  -0.1408853164E+01   0.6045336602E+00   0.1201983297E-02   0.4468048649E-01   0.4533636160E-02   0.0000000000E+00   0.0000000000E+00   0.0000000000E+00  -0.9963761537E-01  -0.1125026610E+01  -0.6904205794E-01  -0.1797107309E+00   0.1306032318E-01  -0.2634554154E-03
   0.8145065595E+00  -0.1600899035E+01   0.6049530848E+00   0.7682134789E-03   0.4668301495E-01   0.4953060767E-02   0.0000000000E+00   0.0000000000E+00   0.0000000000E+00  -0.8411165495E-01  -0.1065568302E+01  -0.5256380678E-01  -0.1547357560E+00   0.1319127966E-01  -0.1175419888E-03
   0.8114155896E+00  -0.1792527628E+01   0.6053963940E+00   0.3630285882E-03   0.4859404218E-01   0.5396370009E-02   0.0000000000E+00   0.0000000000E+00   0.0000000000E+00  -0.7736312527E-01  -0.1022643110E+01  -0.4421728501E-01  -0.1283559981E+00   0.1360929211E-01  -0.2622215544E-03
   0.8089023929E+00  -0.1984029861E+01   0.6058659209E+00  -0.2621614980E-04   0.5043735864E-01   0.5865896931E-02   0.0000000000E+00   0.0000000000E+00   0.0000000000E+00  -0.8573757734E-01  -0.1002201660E+01  -0.4942858802E-01  -0.1005089812E+00   0.1417314539E-01  -0.7955889291E-03
   0.8067201772E+00  -0.2175503467E+01   0.6063624782E+00  -0.4054508095E-03   0.5223157281E-01   0.6362454151E-02   0.0000000000E+00   0.0000000000E+00   0.0000000000E+00  -0.1071807804E+00  -0.1001526261E+01  -0.6564060408E-01  -0.7095925895E-01   0.1509914131E-01  -0.1689675552E-02
   0.8047968217E+00  -0.2366967123E+01   0.6068881674E+00  -0.7822442621E-03   0.5399210716E-01   0.6888143443E-02   0.0000000000E+00   0.0000000000E+00   0.0000000000E+00  -0.1445282860E+00  -0.1021975132E+01  -0.9401230777E-01  -0.3864225978E-01   0.1572878921E-01  -0.3100177933E-02
   0.8031665403E+00  -0.2558390259E+01   0.6074441267E+00  -0.1166133664E-02   0.5573213096E-01   0.7444102707E-02   0.0000000000E+00   0.0000000000E+00   0.0000000000E+00  -0.2068639859E+00  -0.1070916362E+01  -0.1418871231E+00  -0.2768719453E-04   0.1522326358E-01  -0.4575071512E-02
   0.8018976428E+00  -0.2749703085E+01   0.6080273551E+00  -0.1578095243E-02   0.5746229454E-01   0.8027331094E-02   0.0000000000E+00   0.0000000000E+00   0.0000000000E+00  -0.2455136758E+00  -0.1099088354E+01  -0.1622619655E+00   0.4137791689E-01   0.1181547864E-01  -0.4863747881E-02
   0.8009685289E+00  -0.2940810547E+01   0.6086260957E+00  -0.1998483089E-02   0.5918945308E-01   0.8626071664E-02   0.0000000000E+00   0.0000000000E+00   0.0000000000E+00  -0.2689242022E+00  -0.1117461997E+01  -0.1748260017E+00   0.8003664628E-01   0.6583646843E-02  -0.2623193256E-02
   0.6397724701E+00  -0.8510350585E+00   0.6033636465E+00   0.1711364132E-02   0.4060071752E-01   0.3363622515E-02   0.0000000000E+00   0.0000000000E+00   0.0000000000E+00  -0.1953707509E+00  -0.1255698460E+01  -0.2275964743E+00  -0.2887561900E+00   0.3895060971E-01   0.5522977814E-02
   0.6279006062E+00  -0.1050272388E+01   0.6037351387E+00   0.1037067153E-02   0.4277869220E-01   0.3735114724E-02   0.0000000000E+00   0.0000000000E+00   0.0000000000E+00   0.1455707274E+00  -0.8713214066E+00   0.1044904874E+00  -0.2650333715E+00   0.2767116178E-01   0.5108589213E-02
   0.6206606819E+00  -0.1242246276E+01   0.6041240752E+00   0.5743699472E-03   0.4473363368E-01   0.4124051211E-02   0.0000000000E+00   0.0000000000E+00   0.0000000000E+00   0.1279523920E+00  -0.8423238529E+00   0.9278816276E-01  -0.2355134350E+00   0.2282921854E-01   0.3437614553E-02
   0.6160850213E+00  -0.1431837043E+01   0.6045320276E+00   0.1730602501E-03   0.4655162690E-01   0.4532003616E-02   0.0000000000E+00   0.0000000000E+00   0.0000000000E+00   0.1321831930E+00  -0.7935578738E+00   0.1076576838E+00  -0.1970278960E+00   0.1859882154E-01   0.3820604260E-02
   0.6128788229E+00  -0.1620619714E+01   0.6049594291E+00  -0.2030490619E-03   0.4828125571E-01   0.4959405115E-02   0.0000000000E+00   0.0000000000E+00   0.0000000000E+00   0.1133332088E+00  -0.7777459519E+00   0.9688300391E-01  -0.1646791972E+00   0.1620240493E-01   0.4468697696E-02
   0.6103309304E+00  -0.1809227566E+01   0.6054073845E+00  -0.5619616311E-03   0.4994907366E-01   0.5407360532E-02   0.0000000000E+00   0.0000000000E+00   0.0000000000E+00   0.1058523933E+00  -0.7564867773E+00   0.9551923415E-01  -0.1357032387E+00   0.1511136428E-01   0.5186602066E-02
   0.6081088127E+00  -0.1997835533E+01   0.6058781816E+00  -0.9122553168E-03   0.5156670681E-01   0.5878157622E-02   0.0000000000E+00   0.0000000000E+00   0.0000000000E+00   0.1084173533E+00  -0.7283419023E+00   0.1033627915E+00  -0.1095970106E+00   0.1468215944E-01   0.5993242488E-02
   0.6060686230E+00  -0.2186458467E+01   0.6063713696E+00  -0.1258659004E-02   0.5313980321E-01   0.6371345562E-02   0.0000000000E+00   0.0000000000E+00   0.0000000000E+00   0.1318805268E+00  -0.6818824807E+00   0.1295032495E+00  -0.8514980372E-01   0.1527180769E-01   0.6595834424E-02
   0.6041920737E+00  -0.2375094480E+01   0.6068906236E+00  -0.1604382271E-02   0.5466979036E-01   0.6890599599E-02   0.0000000000E+00   0.0000000000E+00   0.0000000000E+00   0.1663601363E+00  -0.6247820619E+00   0.1664478591E+00  -0.6103405392E-01   0.1602362502E-01   0.6513710417E-02
   0.6025382128E+00  -0.2563728805E+01   0.6074403914E+00  -0.1955226155E-02   0.5615711461E-01   0.7440367402E-02   0.0000000000E+00   0.0000000000E+00   0.0000000000E+00   0.2231760062E+00  -0.5445586638E+00   0.2284788632E+00  -0.3399801423E-01   0.1628413364E-01   0.4511745800E-02
   0.6011972429E+00  -0.2752340920E+01   0.6080278099E+00  -0.2328992061E-02   0.5760585993E-01   0.8027785897E-02   0.0000000000E+00   0.0000000000E+00   0.0000000000E+00   0.1962924581E+00  -0.5482556016E+00   0.2161426219E+00   0.6897860542E-04   0.1427999890E-01   0.3373912096E-02
   0.6002699185E+00  -0.2940968006E+01   0.6086328381E+00  -0.2737278464E-02   0.5903199384E-01   0.8632814101E-02   0.0000000000E+00   0.0000000000E+00   0.0000000000E+00   0.1460602549E+00  -0.5947343143E+00   0.1620666189E+00   0.3675820887E-01   0.6985597955E-02   0.6192502988E-02
   0.3993476434E+00  -0.2754989113E+01   0.6080543002E+00  -0.3050167562E-02   0.5838111695E-01   0.8054276200E-02   0.0000000000E+00   0.0000000000E+00   0.0000000000E+00  -0.2835057187E+00  -0.1000142742E+01  -0.2718315388E+00  -0.6506126655E-01   0.2473607038E-02   0.3614941144E-01
   0.3990515683E+00  -0.2940287425E+01   0.6086844541E+00  -0.3444650694E-02   0.5971257464E-01   0.8684430071E-02   0.0000000000E+00   0.0000000000E+00   0.0000000000E+00  -0.2378430690E+00  -0.9389808168E+00  -0.2242511589E+00  -0.4985045317E-01  -0.6250366283E-02   0.4347149435E-01
   0.1934953589E+00  -0.2755558220E+01   0.6080853969E+00  -0.3773395143E-02   0.5913714031E-01   0.8085372904E-02   0.0000000000E+00   0.0000000000E+00   0.0000000000E+00   0.8225173236E-01  -0.6341801063E+00   0.9177510386E-01  -0.9644187062E-01  -0.1083766260E-01   0.3781116154E-01
   0.1942824270E+00  -0.2939547268E+01   0.6087435197E+00  -0.4123614035E-02   0.6045273202E-01   0.8743495668E-02   0.0000000000E+00   0.0000000000E+00   0.0000000000E+00  -0.1026393308E+00  -0.7912028146E+00  -0.6232910636E-01  -0.1039814893E+00  -0.1591731671E-01   0.4005404757E-01
   0.4002945990E+00  -0.2569500634E+01   0.6074617693E+00  -0.2724351960E-02   0.5700450556E-01   0.7461745304E-02   0.0000000000E+00   0.0000000000E+00   0.0000000000E+00  -0.2899098629E+00  -0.1036305147E+01  -0.2927332569E+00  -0.7726680162E-01   0.4651607118E-02   0.3225024429E-01
   0.1941677188E+00  -0.2571332023E+01   0.6074868577E+00  -0.3494486209E-02   0.5777735713E-01   0.7486833712E-02   0.0000000000E+00   0.0000000000E+00   0.0000000000E+00   0.6002600675E-02  -0.7364897881E+00   0.1224311484E-02  -0.8769545872E-01  -0.9293418369E-02   0.3786629325E-01
   0.4015955717E+00  -0.2383931907E+01   0.6069116849E+00  -0.2407482320E-02   0.5559274312E-01   0.6911660875E-02   0.0000000000E+00   0.0000000000E+00   0.0000000000E+00  -0.2178637929E+00  -0.9820570568E+00  -0.2282659016E+00  -0.8121005367E-01   0.6123412688E-02   0.2739557649E-01
   0.1952453196E+00  -0.2387190136E+01   0.6069308728E+00  -0.3205037436E-02   0.5639192449E-01   0.6930848754E-02   0.0000000000E+00   0.0000000000E+00   0.0000000000E+00   0.1557213141E-01  -0.7399209658E+00   0.1438195136E-02  -0.7326305534E-01  -0.6116546082E-02   0.3306223778E-01
   0.4030961675E+00  -0.2198330645E+01   0.6063913905E+00  -0.2092243541E-02   0.5415749484E-01   0.6391366469E-02   0.0000000000E+00   0.0000000000E+00   0.0000000000E+00  -0.1464485505E+00  -0.9245955165E+00  -0.1642981955E+00  -0.8897951152E-01   0.7233363440E-02   0.2229270664E-01
   0.1965089161E+00  -0.2203366352E+01   0.6064033075E+00  -0.2913115947E-02   0.5500166850E-01   0.6403283500E-02   0.0000000000E+00   0.0000000000E+00   0.0000000000E+00   0.1048005457E-01  -0.7497451647E+00  -0.1513064251E-01  -0.6829392161E-01  -0.2786058986E-02   0.2768299847E-01
   0.4047242473E+00  -0.2012721255E+01   0.6058960690E+00  -0.1776777691E-02   0.5270461490E-01   0.5896045010E-02   0.0000000000E+00   0.0000000000E+00   0.0000000000E+00  -0.1052817050E+00  -0.8959522814E+00  -0.1316897361E+00  -0.1009143247E+00   0.8595204553E-02   0.1760774080E-01
   0.1989267484E+00  -0.2023054185E+01   0.6059054432E+00  -0.2621857642E-02   0.5364268510E-01   0.5905419224E-02   0.0000000000E+00   0.0000000000E+00   0.0000000000E+00   0.2522388029E-01  -0.7348290067E+00  -0.1727400646E-01  -0.7148014066E-01   0.9301729224E-03   0.2236296381E-01
   0.4070769384E+00  -0.1829484389E+01   0.6054253228E+00  -0.1465754586E-02   0.5125172081E-01   0.5425298803E-02   0.0000000000E+00   0.0000000000E+00   0.0000000000E+00  -0.5401650488E-01  -0.8591302371E+00  -0.9443800682E-01  -0.1181175174E+00   0.1089704587E-01   0.1390116137E-01
   0.2001380287E+00  -0.1839152426E+01   0.6054117901E+00  -0.2342079313E-02   0.5228319362E-01   0.5411766071E-02   0.0000000000E+00   0.0000000000E+00   0.0000000000E+00   0.6618861500E-01  -0.6929589013E+00  -0.3545689488E-02  -0.8158444388E-01   0.4867321894E-02   0.1760963015E-01
   0.4086909987E+00  -0.1642794675E+01   0.6049659908E+00  -0.1148542293E-02   0.4976063463E-01   0.4965966846E-02   0.0000000000E+00   0.0000000000E+00   0.0000000000E+00  -0.3662448306E-01  -0.8570173602E+00  -0.9211516704E-01  -0.1409210767E+00   0.1413572593E-01   0.1118672555E-01
   0.2028865577E+00  -0.1661280037E+01   0.6049470237E+00  -0.2063626257E-02   0.5099451329E-01   0.4946999709E-02   0.0000000000E+00   0.0000000000E+00   0.0000000000E+00   0.1152837556E+00  -0.6388762201E+00   0.1410716044E-01  -0.9781051196E-01   0.9396229353E-02   0.1404647384E-01
   0.4110927451E+00  -0.1458475788E+01   0.6045287087E+00  -0.8282199365E-03   0.4826669197E-01   0.4528684744E-02   0.0000000000E+00   0.0000000000E+00   0.0000000000E+00  -0.1975139753E-01  -0.8603935884E+00  -0.9544865197E-01  -0.1730383120E+00   0.1880334929E-01   0.8093719847E-02
   0.2046001941E+00  -0.1481554196E+01   0.6044886368E+00  -0.1790663925E-02   0.4973657432E-01   0.4488612841E-02   0.0000000000E+00   0.0000000000E+00   0.0000000000E+00   0.1930493259E+00  -0.5566522912E+00   0.5309264294E-01  -0.1244694627E+00   0.1433078212E-01   0.1151408714E-01
   0.4140170747E+00  -0.1273914419E+01   0.6041023887E+00  -0.5033972624E-03   0.4674438074E-01   0.4102364690E-02   0.0000000000E+00   0.0000000000E+00   0.0000000000E+00   0.3145274686E-01  -0.8333441289E+00  -0.7182716993E-01  -0.2133202197E+00   0.2518947177E-01   0.5552699068E-02
   0.2053195079E+00  -0.1294917303E+01   0.6040237776E+00  -0.1523138134E-02   0.4848114713E-01   0.4023753631E-02   0.0000000000E+00   0.0000000000E+00   0.0000000000E+00   0.2427493908E+00  -0.5042886318E+00   0.5614050672E-01  -0.1586160265E+00   0.1980240993E-01   0.8278503306E-02
   0.4180317623E+00  -0.1089118707E+01   0.6036831188E+00  -0.1449186729E-03   0.4519130326E-01   0.3683094810E-02   0.0000000000E+00   0.0000000000E+00   0.0000000000E+00   0.5678877926E-01  -0.8369447026E+00  -0.8413641341E-01  -0.2576305264E+00   0.3486446497E-01   0.4089157808E-04
   0.2079662724E+00  -0.1117061916E+01   0.6035822096E+00  -0.1249755621E-02   0.4732233372E-01   0.3582185590E-02   0.0000000000E+00   0.0000000000E+00   0.0000000000E+00   0.3534547295E+00  -0.3962142372E+00   0.1079476047E+00  -0.1972901587E+00   0.2575102096E-01   0.3674933487E-02
   0.4239326081E+00  -0.9088846191E+00   0.6032575052E+00   0.3232320897E-03   0.4366078494E-01   0.3257481218E-02   0.0000000000E+00   0.0000000000E+00   0.0000000000E+00   0.2099164815E+00  -0.6817313061E+00   0.1595385451E-01  -0.2870069838E+00   0.5156872512E-01  -0.6911584515E-02
   0.2116019762E+00  -0.9511242955E+00   0.6031638033E+00  -0.9237338343E-03   0.4628326049E-01   0.3163779257E-02   0.0000000000E+00   0.0000000000E+00   0.0000000000E+00   0.3752629748E+00  -0.3638283466E+00   0.6624978396E-01  -0.2084649105E+00   0.2985798747E-01  -0.4287835246E-02
   0.4271485847E+00  -0.7423501818E+00   0.6028765896E+00   0.9035506635E-03   0.4233650323E-01   0.2876565602E-02   0.0000000000E+00   0.0000000000E+00   0.0000000000E+00   0.7599667885E+00  -0.1767617722E+00   0.4923523960E+00  -0.3827774923E+00   0.6906841874E-01   0.5830164065E-02
   0.2130203234E+00  -0.8074850998E+00   0.6027950752E+00  -0.5306166222E-03   0.4544496922E-01   0.2795051226E-02   0.0000000000E+00   0.0000000000E+00   0.0000000000E+00   0.7050551578E+00  -0.7919774411E-01   0.3041956269E+00  -0.2538486083E+00   0.3219222925E-01  -0.3204542829E-02
   0.1865017308E+00  -0.6813801793E+00   0.6025040119E+00  -0.5951781950E-03   0.4490813966E-01   0.2503987883E-02   0.0000000000E+00   0.0000000000E+00   0.0000000000E+00  -0.3023469327E-01  -0.8664970520E+00  -0.4824441274E+00  -0.3201871243E+00   0.3348942502E-01   0.2455750442E-03
   0.3657263333E+00  -0.6130919676E+00   0.6025938864E+00   0.7022433354E-03   0.4208544638E-01   0.2593862431E-02   0.0000000000E+00   0.0000000000E+00   0.0000000000E+00   0.3786014805E+00  -0.7550243503E+00  -0.1596736208E-01  -0.4585802653E+00   0.7492576542E-01   0.3801359122E-01
   0.1804036111E+01   0.8728356941E+00   0.6006850787E+00   0.8856620557E-02   0.1609736511E-01   0.6850547358E-03   0.0000000000E+00   0.0000000000E+00   0.0000000000E+00   0.5145454073E-01  -0.1011343164E+01  -0.3168806766E-01  -0.5400157186E-01  -0.3992168512E-02   0.1096381966E-01
   0.1814785235E+01   0.6615462935E+00   0.6008063466E+00   0.9812585074E-02   0.1831037155E-01   0.8063226393E-03   0.0000000000E+00   0.0000000000E+00   0.0000000000E+00   0.1150607871E+00  -0.9694287661E+00  -0.7395060926E-03  -0.5758859224E-01  -0.2357203884E-02   0.3380852425E-02
   0.2010970279E+01   0.6619244282E+00   0.6006151406E+00   0.1097027898E-01   0.1887238624E-01   0.6151165737E-03   0.0000000000E+00   0.0000000000E+00   0.0000000000E+00   0.1934239945E+00  -0.8481466743E+00   0.5287134992E-01  -0.3080511372E-01  -0.4928904921E-02   0.1119189893E-01
   0.2010021433E+01   0.8733077741E+00   0.6005133480E+00   0.1002143304E-01   0.1677692914E-01   0.5133240341E-03   0.0000000000E+00   0.0000000000E+00   0.0000000000E+00   0.1146702186E+00  -0.9226132297E+00   0.1831819373E-01  -0.3870564074E-01  -0.4335662925E-02   0.1796697787E-01
   0.1825738328E+01   0.4501958290E+00   0.6010042522E+00   0.1068891836E-01   0.2052591204E-01   0.1004228168E-02   0.0000000000E+00   0.0000000000E+00   0.0000000000E+00   0.4413408765E-01  -0.1022795215E+01  -0.3489326763E-01  -0.5773168709E-01  -0.6425437528E-03  -0.3734912535E-02
   0.2011740160E+01   0.4501168390E+00   0.6007901968E+00   0.1174015976E-01   0.2092814003E-01   0.7901727712E-03   0.0000000000E+00   0.0000000000E+00   0.0000000000E+00   0.1735183632E+00  -0.8372673266E+00   0.5126389801E-01  -0.2469898433E-01  -0.4642911000E-02   0.3551448675E-02
   0.1833141369E+01   0.2400957011E+00   0.6012436639E+00   0.1132992896E-01   0.2271517714E-01   0.1243639868E-02   0.0000000000E+00   0.0000000000E+00   0.0000000000E+00  -0.4362283469E-01  -0.1083788449E+01  -0.7047135887E-01  -0.4006852459E-01   0.2126204771E-02  -0.2670598384E-02
   0.2012275937E+01   0.2395682035E+00   0.6010112172E+00   0.1227593660E-01   0.2292706050E-01   0.1011193152E-02   0.0000000000E+00   0.0000000000E+00   0.0000000000E+00   0.1631426225E+00  -0.8118346947E+00   0.7800910588E-01  -0.1938957319E-01  -0.2829136115E-02   0.1843876454E-02
   0.1596794766E+01   0.8726109537E+00   0.6008238240E+00   0.7662095734E-02   0.1566692872E-01   0.8237999630E-03   0.0000000000E+00   0.0000000000E+00   0.0000000000E+00   0.6018136085E-01  -0.1032337971E+01  -0.2337090472E-01  -0.7220925072E-01  -0.1476196178E-02   0.9493932028E-02
   0.1618055609E+01   0.6612163620E+00   0.6009515375E+00   0.8619808515E-02   0.1796607503E-01   0.9515135439E-03   0.0000000000E+00   0.0000000000E+00   0.0000000000E+00   0.1502341116E+00  -0.9793656553E+00   0.3252747911E-01  -0.8915432702E-01   0.2701394413E-02   0.2787728406E-03
   0.1639074029E+01   0.4498809807E+00   0.6011685597E+00   0.9615358611E-02   0.2029197774E-01   0.1168535738E-02   0.0000000000E+00   0.0000000000E+00   0.0000000000E+00   0.6038753841E-01  -0.1053454579E+01  -0.1617338505E-02  -0.9675457269E-01   0.5891765432E-02  -0.7596376446E-02
   0.1654276769E+01   0.2392178803E+00   0.6014237898E+00   0.1037970912E-01   0.2261604627E-01   0.1423765820E-02   0.0000000000E+00   0.0000000000E+00   0.0000000000E+00  -0.5953359864E-02  -0.1092192026E+01   0.2939341094E-03  -0.6381304013E-01   0.9418691670E-02  -0.5039611652E-02
   0.1387551334E+01   0.8724355921E+00   0.6009317126E+00   0.6424933999E-02   0.1532568814E-01   0.9316886455E-03   0.0000000000E+00   0.0000000000E+00   0.0000000000E+00   0.6510084737E-01  -0.1046572096E+01  -0.2277458881E-01  -0.4591262342E-01  -0.2208262826E-03   0.1010951519E-01
   0.1420415021E+01   0.6599833320E+00   0.6010622869E+00   0.7376170762E-02   0.1770978696E-01   0.1062262854E-02   0.0000000000E+00   0.0000000000E+00   0.0000000000E+00   0.1889790945E+00  -0.9754932850E+00   0.6026659868E-01  -0.8648623338E-01   0.3965741849E-02  -0.2667679263E-02
   0.1452253966E+01   0.4483077516E+00   0.6013008317E+00   0.8516935621E-02   0.2013549064E-01   0.1300807736E-02   0.0000000000E+00   0.0000000000E+00   0.0000000000E+00   0.6768620219E-01  -0.1085962633E+01   0.1348297820E-01  -0.1141186947E+00   0.6682023981E-02  -0.1197061497E-01
   0.1475938471E+01   0.2377405516E+00   0.6015725663E+00   0.9421261445E-02   0.2256742655E-01   0.1572542302E-02   0.0000000000E+00   0.0000000000E+00   0.0000000000E+00  -0.2210379041E-01  -0.1147373180E+01   0.8884761921E-02  -0.7612861015E-01   0.1034195736E-01  -0.7473755232E-02
   0.1174143603E+01   0.8717691190E+00   0.6010166102E+00   0.5136423252E-02   0.1492469399E-01   0.1016586237E-02   0.0000000000E+00   0.0000000000E+00   0.0000000000E+00   0.9851716312E-01  -0.1043666514E+01  -0.1480173013E-02  -0.9260516456E-02  -0.1073302002E-02   0.1112038733E-01
   0.1221787793E+01   0.6562768657E+00   0.6011534816E+00   0.6082633326E-02   0.1743541570E-01   0.1153457580E-02   0.0000000000E+00   0.0000000000E+00   0.0000000000E+00   0.1954978209E+00  -0.1028588714E+01   0.4320506250E-01  -0.7919454351E-01   0.4310784810E-02  -0.6405775521E-02
   0.1266892336E+01   0.4440802358E+00   0.6014197833E+00   0.7406495981E-02   0.1999384377E-01   0.1419759284E-02   0.0000000000E+00   0.0000000000E+00   0.0000000000E+00  -0.1343071202E-01  -0.1223196868E+01  -0.6232651330E-01  -0.1308063488E+00   0.7937478305E-02  -0.1703399791E-01
   0.1300496157E+01   0.2345959714E+00   0.6017088144E+00   0.8467606953E-02   0.2254720236E-01   0.1708790377E-02   0.0000000000E+00   0.0000000000E+00   0.0000000000E+00  -0.9213044755E-01  -0.1267594314E+01  -0.3542260863E-01  -0.8666919155E-01   0.9664046290E-02  -0.1010205772E-01
   0.9497573767E+00   0.8695416841E+00   0.6010950414E+00   0.3793755720E-02   0.1418058008E-01   0.1095017416E-02   0.0000000000E+00   0.0000000000E+00   0.0000000000E+00   0.1356890539E+00  -0.9199653466E+00   0.9549223043E-01   0.1789238238E+00  -0.1271586019E-02   0.1056627466E-01
   0.1023512529E+01   0.6472438497E+00   0.6012569526E+00   0.4788569007E-02   0.1698731568E-01   0.1256928554E-02   0.0000000000E+00   0.0000000000E+00   0.0000000000E+00   0.3128942165E+00  -0.8353474625E+00   0.2346151974E+00   0.3616813973E-01  -0.8830341688E-02  -0.1679433646E-01
   0.1087481560E+01   0.4352467063E+00   0.6015468345E+00   0.6334719905E-02   0.1977217229E-01   0.1546810520E-02   0.0000000000E+00   0.0000000000E+00   0.0000000000E+00   0.2403226586E+00  -0.9805654303E+00   0.2439255167E+00  -0.7373305707E-01  -0.8026042406E-02  -0.2737303281E-01
   0.1132997640E+01   0.2289799058E+00   0.6018563954E+00   0.7548820102E-02   0.2250338176E-01   0.1856371368E-02   0.0000000000E+00   0.0000000000E+00   0.0000000000E+00   0.1009295505E+00  -0.1126216985E+01   0.2117719869E+00  -0.5566235100E-01  -0.6680336207E-02  -0.1707559607E-01
   0.6910746674E+00   0.8617295579E+00   0.6011172097E+00   0.2526162379E-02   0.1191210290E-01   0.1117185673E-02   0.0000000000E+00   0.0000000000E+00   0.0000000000E+00   0.5103999643E-01  -0.8757723836E+00   0.5515951923E-01   0.3071522022E+00   0.2094470997E-01  -0.1487695244E-01
   0.8336043415E+00   0.6260316443E+00   0.6014713079E+00   0.3831630533E-02   0.1575995235E-01   0.1471283943E-02   0.0000000000E+00   0.0000000000E+00   0.0000000000E+00  -0.1191693336E+00  -0.1257334003E+01  -0.2502941309E-01   0.1561592725E+00  -0.2086832257E-01  -0.4503049171E-01
   0.9245646397E+00   0.4194914528E+00   0.6017807250E+00   0.5465189732E-02   0.1914272976E-01   0.1780700975E-02   0.0000000000E+00   0.0000000000E+00   0.0000000000E+00  -0.3249503989E+00  -0.1663595526E+01  -0.1947433248E+00   0.3940232279E-02  -0.2658037255E-01  -0.3791137791E-01
   0.9825243948E+00   0.2208793963E+00   0.6020857760E+00   0.6729423837E-02   0.2229187429E-01   0.2085751960E-02   0.0000000000E+00   0.0000000000E+00   0.0000000000E+00  -0.4707056181E+00  -0.1850194325E+01  -0.2523998751E+00  -0.2961767170E-01  -0.2927889479E-01  -0.2376088191E-01
   0.8538580151E+00   0.2084540131E+00   0.6023398499E+00   0.5987606109E-02   0.2222415814E-01   0.2339825897E-02   0.0000000000E+00   0.0000000000E+00   0.0000000000E+00   0.3450524135E+00  -0.1226852070E+01   0.6861525685E+00  -0.4977822803E-02  -0.4936312758E-01  -0.3448689072E-01
   0.7371060742E+00   0.1865023111E+00   0.6026640443E+00   0.5329121164E-02   0.2217784912E-01   0.2664020307E-02   0.0000000000E+00   0.0000000000E+00   0.0000000000E+00  -0.2591147737E+01  -0.4353856094E+01  -0.2043613853E+01   0.8629045466E-01  -0.7145998349E-01  -0.4075369365E-01
   0.7923371352E+00   0.3940691337E+00   0.6020244469E+00   0.4784957210E-02   0.1874086073E-01   0.2024422911E-02   0.0000000000E+00   0.0000000000E+00   0.0000000000E+00   0.4987770773E+00  -0.9772900559E+00   0.7646533998E+00   0.5842119404E-01  -0.3678793852E-01  -0.5652688307E-01
   0.6806593650E+00   0.3429693453E+00   0.6023549983E+00   0.4410337975E-02   0.1864351532E-01   0.2354974289E-02   0.0000000000E+00   0.0000000000E+00   0.0000000000E+00  -0.2448031360E+01  -0.4014901597E+01  -0.1940185507E+01   0.1796129633E+00  -0.3860321928E-01  -0.9227052601E-01
   0.6970084351E+00   0.5750047218E+00   0.6016841855E+00   0.3342752054E-02   0.1517465179E-01   0.1684161472E-02   0.0000000000E+00   0.0000000000E+00   0.0000000000E+00  -0.5745353021E+00  -0.1809138346E+01  -0.3642645470E+00   0.1987265347E+00   0.9383774778E-02  -0.6625516947E-01
   0.5879777760E+00   0.4848030403E+00   0.6018977486E+00   0.3231356011E-02   0.1515250325E-01   0.1897724622E-02   0.0000000000E+00   0.0000000000E+00   0.0000000000E+00  -0.8196231038E+00  -0.2141482119E+01  -0.5119954244E+00   0.2735552328E+00   0.5404469023E-01  -0.9864377397E-01
   0.5650906278E+00   0.7232058733E+00   0.6012388307E+00   0.2199263762E-02   0.1193470634E-01   0.1238806712E-02   0.0000000000E+00   0.0000000000E+00   0.0000000000E+00  -0.1181683023E+00  -0.1117887514E+01  -0.1271707018E+00   0.3013690086E+00   0.6383769975E-01  -0.5325705171E-01
   0.4669676441E+00   0.6004941310E+00   0.6013348190E+00   0.2032937147E-02   0.1199118699E-01   0.1334795024E-02   0.0000000000E+00   0.0000000000E+00   0.0000000000E+00   0.2086102051E+00  -0.9282171971E+00   0.1439617239E+00   0.3431579289E+00   0.9417363572E-01  -0.6685434865E-01
   0.3943883648E+00   0.8237331613E+00   0.6008530010E+00   0.1198278768E-02   0.9186755330E-02   0.8529769605E-03   0.0000000000E+00   0.0000000000E+00   0.0000000000E+00   0.4935132859E+00  -0.2660222269E+00   0.2826718347E+00   0.3305680034E+00   0.5623774034E-01  -0.9458512070E-02
   0.3240473355E+00   0.6862186249E+00   0.6008952061E+00   0.9804155147E-03   0.9367232886E-02   0.8951820776E-03   0.0000000000E+00   0.0000000000E+00   0.0000000000E+00   0.2839740085E+00  -0.5459272979E+00   0.5074877674E-02   0.3379665633E+00   0.7359870873E-01  -0.2210603589E-01
   0.1987106370E+00   0.8835558340E+00   0.6006693974E+00   0.3343840489E-03   0.7204953999E-02   0.6693734480E-03   0.0000000000E+00   0.0000000000E+00   0.0000000000E+00   0.2450606475E+00  -0.3256557105E+00  -0.1778731266E-01   0.2211802382E+00   0.2777194810E-01   0.8899317893E-02
   0.1652293853E+00   0.7392530746E+00   0.6006788525E+00   0.1600583272E-03   0.7643789591E-02   0.6788285091E-03   0.0000000000E+00   0.0000000000E+00   0.0000000000E+00   0.3162847553E+00  -0.2587001751E+00  -0.8302988111E-02   0.2030232433E+00   0.3566207471E-01   0.1595348927E-01
   0.4365621492E+00   0.9734699674E+00   0.6008134394E+00   0.1401512202E-02   0.8601541442E-02   0.8134153583E-03   0.0000000000E+00   0.0000000000E+00   0.0000000000E+00   0.2263446388E+00  -0.4830758134E+00   0.8435276320E-01   0.3180390288E+00   0.4061478521E-01  -0.7807779817E-03
   0.2173481613E+00   0.1037599345E+01   0.6006327387E+00   0.5456532737E-03   0.6602785159E-02   0.6327147259E-03   0.0000000000E+00   0.0000000000E+00   0.0000000000E+00   0.3006383836E+00  -0.2589222027E+00   0.8165099641E-01   0.2018249111E+00   0.2123974040E-01  -0.9027073673E-03
   0.2276478810E+00   0.1216231179E+01   0.6005705047E+00   0.6438599797E-03   0.5860999366E-02   0.5704807081E-03   0.0000000000E+00   0.0000000000E+00   0.0000000000E+00   0.3005863933E+00  -0.2252898078E+00   0.1187987792E+00   0.1506298406E+00   0.1642812924E-01  -0.6406926585E-03
   0.2306790772E+00   0.1407641962E+01   0.6005297929E+00   0.6157432430E-03   0.5034282098E-02   0.5297689448E-03   0.0000000000E+00   0.0000000000E+00   0.0000000000E+00   0.1911613489E+00  -0.3097601468E+00   0.6758100436E-01   0.1116192601E+00   0.1520644157E-01   0.1714769184E-02
   0.2311766686E+00   0.1603785285E+01   0.6004898053E+00   0.5925836142E-03   0.4168995071E-02   0.4897812678E-03   0.0000000000E+00   0.0000000000E+00   0.0000000000E+00   0.1299494511E+00  -0.3448031030E+00   0.5877080478E-01   0.8245449343E-01   0.1211482494E-01  -0.2671710975E-03
   0.2309064962E+00   0.1801719869E+01   0.6004453439E+00   0.5545411984E-03   0.3306588813E-02   0.4453199442E-03   0.0000000000E+00   0.0000000000E+00   0.0000000000E+00   0.6536904532E-01  -0.3758363864E+00   0.3713040454E-01   0.5340568016E-01   0.9157270339E-02  -0.1850856768E-02
   0.2304385094E+00   0.2000367373E+01   0.6003967261E+00   0.5072893736E-03   0.2476543265E-02   0.3967021174E-03   0.0000000000E+00   0.0000000000E+00   0.0000000000E+00   0.3256348416E-01  -0.3673685980E+00   0.3771133592E-01   0.3093945453E-01   0.6791992925E-02  -0.3642050488E-02
   0.2299936767E+00   0.2199246808E+01   0.6003426801E+00   0.4427937378E-03   0.1710098040E-02   0.3426561033E-03   0.0000000000E+00   0.0000000000E+00   0.0000000000E+00  -0.4448015194E-01  -0.3925576775E+00  -0.1486702795E-01   0.1243379368E-01   0.4823005888E-02  -0.5873098703E-02
   0.2294245515E+00   0.2398779724E+01   0.6002799651E+00   0.3622925051E-03   0.1037453705E-02   0.2799411056E-03   0.0000000000E+00   0.0000000000E+00   0.0000000000E+00   0.1062481583E+00  -0.1777245753E+00   0.1492594319E+00  -0.1502518346E-02   0.3420894901E-02  -0.8880997195E-02
   0.2290627147E+00   0.2598806166E+01   0.6002048070E+00   0.2646677306E-03   0.4973659797E-03   0.2047829521E-03   0.0000000000E+00   0.0000000000E+00   0.0000000000E+00  -0.5295090293E+00  -0.7385001640E+00  -0.4856798938E+00  -0.1164615017E-01   0.2367585438E-02  -0.1257850461E-01
   0.2294345683E+00   0.2799240633E+01   0.6001128767E+00   0.1488512774E-03   0.1345134152E-03   0.1128527043E-03   0.0000000000E+00   0.0000000000E+00   0.0000000000E+00   0.1760602971E+01   0.1654347124E+01   0.1789979318E+01  -0.2068504971E-01   0.1202224395E-02  -0.1723172264E-01
   0.2284518480E+00   0.3000000000E+01   0.6000000240E+00   0.0000000000E+00   0.0000000000E+00   0.0000000000E+00   0.0000000000E+00   0.0000000000E+00   0.0000000000E+00  -0.6950622644E+01  -0.6978445066E+01  -0.6950604785E+01  -0.2589535294E-01  -0.1208882481E-04  -0.1950349021E-01
   0.4483346957E+00   0.1169596320E+01   0.6007188144E+00   0.1481117714E-02   0.7460960145E-02   0.7187904442E-03   0.0000000000E+00   0.0000000000E+00   0.0000000000E+00   0.3041529169E+00  -0.3823800899E+00   0.1796875191E+00   0.2167681130E+00   0.3243461816E-01   0.9741101100E-03
   0.4499982087E+00   0.1372319221E+01   0.6006597506E+00   0.1339920694E-02   0.6249311481E-02   0.6597265685E-03   0.0000000000E+00   0.0000000000E+00   0.0000000000E+00   0.3408049710E-02  -0.6146162318E+00  -0.4865592471E-01   0.1453642770E+00   0.2286366203E-01   0.4381960589E-02
   0.4495341724E+00   0.1575199888E+01   0.6005914492E+00   0.1218790404E-02   0.5061437908E-02   0.5914252169E-03   0.0000000000E+00   0.0000000000E+00   0.0000000000E+00   0.1655740077E-01  -0.5603124841E+00   0.9654654286E-03   0.1059383571E+00   0.1592948914E-01  -0.7746805143E-04
   0.4489671176E+00   0.1777871330E+01   0.6005220477E+00   0.1093405641E-02   0.3941379574E-02   0.5220236706E-03   0.0000000000E+00   0.0000000000E+00   0.0000000000E+00  -0.2694710367E-01  -0.5488467171E+00  -0.1170211920E-01   0.6688850929E-01   0.1148184017E-01  -0.1637032206E-02
   0.4485496259E+00   0.1980629392E+01   0.6004529552E+00   0.9613308525E-03   0.2908291988E-02   0.4529312212E-03   0.0000000000E+00   0.0000000000E+00   0.0000000000E+00  -0.2184557569E-01  -0.4855702593E+00   0.1535214446E-01   0.3675870847E-01   0.8407758998E-02  -0.3865245742E-02
   0.4482013040E+00   0.2183605209E+01   0.6003825259E+00   0.8111049707E-03   0.1983179304E-02   0.3825018759E-03   0.0000000000E+00   0.0000000000E+00   0.0000000000E+00  -0.7715154741E-01  -0.4745013402E+00  -0.2499315028E-01   0.1141799123E-01   0.6174038415E-02  -0.6225367098E-02
   0.4478387382E+00   0.2386995253E+01   0.6003076038E+00   0.6429102203E-03   0.1191073328E-02   0.3075797852E-03   0.0000000000E+00   0.0000000000E+00   0.0000000000E+00   0.1056669760E+00  -0.2143777295E+00   0.1644182657E+00  -0.8310587126E-02   0.4590243256E-02  -0.9347225278E-02
   0.4476413680E+00   0.2590876586E+01   0.6002229966E+00   0.4546599605E-03   0.5660157368E-03   0.2229726485E-03   0.0000000000E+00   0.0000000000E+00   0.0000000000E+00  -0.5828829722E+00  -0.8157808366E+00  -0.5282702425E+00  -0.2284295932E-01   0.3305835414E-02  -0.1322916267E-01
   0.4479024728E+00   0.2795228571E+01   0.6001226327E+00   0.2459007927E-03   0.1514812846E-03   0.1226087169E-03   0.0000000000E+00   0.0000000000E+00   0.0000000000E+00   0.1948348113E+01   0.1831831362E+01   0.1984387837E+01  -0.3487614596E-01   0.1572907630E-02  -0.1823696580E-01
   0.4470604360E+00   0.3000000000E+01   0.6000000240E+00   0.0000000000E+00   0.0000000000E+00   0.0000000000E+00   0.0000000000E+00   0.0000000000E+00   0.0000000000E+00  -0.7617271284E+01  -0.7647641671E+01  -0.7617191562E+01  -0.4133242453E-01  -0.1409146619E-04  -0.2076861125E-01
   0.6815102657E+00   0.1116210415E+01   0.6009304096E+00   0.2470369661E-02   0.9543014982E-02   0.9303855778E-03   0.0000000000E+00   0.0000000000E+00   0.0000000000E+00  -0.1236062187E+00  -0.9603731450E+00  -0.1097451990E+00   0.2561488448E+00   0.2904022720E-01   0.1869570896E-02
   0.6736695914E+00   0.1336995158E+01   0.6007949809E+00   0.2154782378E-02   0.7711558183E-02   0.7949569353E-03   0.0000000000E+00   0.0000000000E+00   0.0000000000E+00   0.6752448078E-01  -0.6813171752E+00   0.9785537276E-01   0.1654851224E+00   0.2151115346E-01  -0.1025425265E-02
   0.6698730079E+00   0.1547191994E+01   0.6006859809E+00   0.1919099872E-02   0.6131183747E-02   0.6859568800E-03   0.0000000000E+00   0.0000000000E+00   0.0000000000E+00   0.4492688056E-01  -0.6423337218E+00   0.8533967440E-01   0.1285119031E+00   0.1728863281E-01  -0.6174144319E-03
   0.6685819502E+00   0.1754335764E+01   0.6005911308E+00   0.1695501236E-02   0.4721403536E-02   0.5911067551E-03   0.0000000000E+00   0.0000000000E+00   0.0000000000E+00   0.2782035486E-01  -0.5863314823E+00   0.8362583942E-01   0.8056386253E-01   0.1330705599E-01  -0.2159238597E-02
   0.6682212543E+00   0.1961009429E+01   0.6005048924E+00   0.1469750323E-02   0.3455919352E-02   0.5048683676E-03   0.0000000000E+00   0.0000000000E+00   0.0000000000E+00   0.1139614900E-01  -0.5288144150E+00   0.7928261826E-01   0.4378389388E-01   0.1033249890E-01  -0.3877319081E-02
   0.6679952121E+00   0.2167916179E+01   0.6004215839E+00   0.1225290132E-02   0.2340678584E-02   0.4215599093E-03   0.0000000000E+00   0.0000000000E+00   0.0000000000E+00  -0.6248941293E-01  -0.5220577935E+00   0.1274147342E-01   0.1128947575E-01   0.8000088373E-02  -0.6401736989E-02
   0.6677567861E+00   0.2375159059E+01   0.6003364374E+00   0.9590881304E-03   0.1397878734E-02   0.3364133582E-03   0.0000000000E+00   0.0000000000E+00   0.0000000000E+00   0.1356125441E+00  -0.2323147986E+00   0.2114238117E+00  -0.1478645783E-01   0.6263255921E-02  -0.9770420020E-02
   0.6675366691E+00   0.2582827596E+01   0.6002430581E+00   0.6681021154E-03   0.6614060999E-03   0.2430340930E-03   0.0000000000E+00   0.0000000000E+00   0.0000000000E+00  -0.6527888888E+00  -0.9189166101E+00  -0.5860390367E+00  -0.3451987351E-01   0.4693311337E-02  -0.1391383035E-01
   0.6674461880E+00   0.2791068425E+01   0.6001341740E+00   0.3527920055E-03   0.1765353923E-03   0.1341500228E-03   0.0000000000E+00   0.0000000000E+00   0.0000000000E+00   0.2228507691E+01   0.2096415074E+01   0.2272195553E+01  -0.4990960025E-01   0.2170680204E-02  -0.1941236025E-01
   0.6674458380E+00   0.3000000000E+01   0.6000000240E+00   0.0000000000E+00   0.0000000000E+00   0.0000000000E+00   0.0000000000E+00   0.0000000000E+00   0.0000000000E+00  -0.8667567480E+01  -0.8702200556E+01  -0.8667514247E+01  -0.5754126815E-01  -0.1398206055E-04  -0.2232131165E-01
   0.8892470664E+00   0.2788251211E+01   0.6001471682E+00   0.4734463853E-03   0.2089013278E-03   0.1471441953E-03   0.0000000000E+00   0.0000000000E+00   0.0000000000E+00   0.2600415504E+01   0.2446898512E+01   0.2652450597E+01  -0.6765841064E-01   0.2222692361E-02  -0.2090798296E-01
   0.8889284130E+00   0.3000000000E+01   0.6000000240E+00   0.0000000000E+00   0.0000000000E+00   0.0000000000E+00   0.0000000000E+00   0.0000000000E+00   0.0000000000E+00  -0.1011032153E+02  -0.1015082336E+02  -0.1011031130E+02  -0.7566250199E-01  -0.8571738384E-05  -0.2420977141E-01
   0.1111370248E+01   0.2786653646E+01   0.6001539408E+00   0.6115881819E-03   0.2390259382E-03   0.1539167593E-03   0.0000000000E+00   0.0000000000E+00   0.0000000000E+00   0.2959361644E+01   0.2784181868E+01   0.3015826301E+01  -0.8964602950E-01   0.9491901786E-03  -0.2169830875E-01
   0.1110863090E+01   0.3000000000E+01   0.6000000240E+00   0.0000000000E+00   0.0000000000E+00   0.0000000000E+00   0.0000000000E+00   0.0000000000E+00   0.0000000000E+00  -0.1151496746E+02  -0.1156109935E+02  -0.1151495734E+02  -0.9666573489E-01  -0.5282480291E-05  -0.2522260098E-01
   0.1333707881E+01   0.2785927075E+01   0.6001512087E+00   0.7701608843E-03   0.2620353676E-03   0.1511847139E-03   0.0000000000E+00   0.0000000000E+00   0.0000000000E+00   0.3274959589E+01   0.3080932353E+01   0.3330711202E+01  -0.1134409905E+00  -0.3068242552E-05  -0.2130714387E-01
   0.1333017710E+01   0.3000000000E+01   0.6000000240E+00   0.0000000000E+00   0.0000000000E+00   0.0000000000E+00   0.0000000000E+00   0.0000000000E+00   0.0000000000E+00  -0.1260706547E+02  -0.1265758869E+02  -0.1260706242E+02  -0.1212793653E+00  -0.2044070229E-05  -0.2477292371E-01
   0.1556186104E+01   0.2785694690E+01   0.6001433573E+00   0.9505941844E-03   0.2838103850E-03   0.1433332572E-03   0.0000000000E+00   0.0000000000E+00   0.0000000000E+00   0.3532521917E+01   0.3320815762E+01   0.3586764223E+01  -0.1419646084E+00  -0.2085417724E-02  -0.2017389266E-01
   0.1555290700E+01   0.3000000000E+01   0.6000000240E+00   0.0000000000E+00   0.0000000000E+00   0.0000000000E+00   0.0000000000E+00   0.0000000000E+00   0.0000000000E+00  -0.1373738502E+02  -0.1379244319E+02  -0.1373738427E+02  -0.1498725423E+00  -0.5099657431E-06  -0.2359669912E-01
   0.1778754837E+01   0.2785666683E+01   0.6001334995E+00   0.1152637388E-02   0.3037229190E-03   0.1334755236E-03   0.0000000000E+00   0.0000000000E+00   0.0000000000E+00   0.3951106983E+01   0.3719994330E+01   0.4005086684E+01  -0.1638168243E+00   0.1083981495E-02  -0.1959956091E-01
   0.1777629730E+01   0.3000000000E+01   0.6000000240E+00   0.0000000000E+00   0.0000000000E+00   0.0000000000E+00   0.0000000000E+00   0.0000000000E+00   0.0000000000E+00  -0.1451113565E+02  -0.1456929882E+02  -0.1451113680E+02  -0.1824601631E+00   0.4451024195E-07  -0.2178182841E-01
   0.2001375615E+01   0.2785767760E+01   0.6001715088E+00   0.1375614918E-02   0.4055196086E-03   0.1714848135E-03   0.0000000000E+00   0.0000000000E+00   0.0000000000E+00   0.5104492870E+01   0.4824542723E+01   0.5200002260E+01  -0.1846211230E+00   0.5276571276E-02  -0.2094414287E-01
   0.2000000000E+01   0.3000000000E+01   0.6000000240E+00   0.0000000000E+00   0.0000000000E+00   0.0000000000E+00   0.0000000000E+00   0.0000000000E+00   0.0000000000E+00  -0.2075463489E+02  -0.2083782312E+02  -0.2075463654E+02  -0.2190631339E+00   0.3346227121E-06  -0.2981519349E-01
   0.8895085409E+00   0.2577261983E+01   0.6002654867E+00   0.9108139075E-03   0.7825532126E-03   0.2654627221E-03   0.0000000000E+00   0.0000000000E+00   0.0000000000E+00  -0.7897751634E+00  -0.1099142601E+01  -0.7086173667E+00  -0.5043192632E-01   0.5276489503E-02  -0.1508018036E-01
   0.1111787277E+01   0.2574030144E+01   0.6002749469E+00   0.1185737450E-02   0.8926242150E-03   0.2749229214E-03   0.0000000000E+00   0.0000000000E+00   0.0000000000E+00  -0.9160199487E+00  -0.1266010170E+01  -0.8271464859E+00  -0.7400789158E-01   0.3931446916E-02  -0.1548820414E-01
   0.1334299415E+01   0.2572502543E+01   0.6002672578E+00   0.1494254758E-02   0.9755428106E-03   0.2672338203E-03   0.0000000000E+00   0.0000000000E+00   0.0000000000E+00  -0.9876005897E+00  -0.1370643526E+01  -0.8986757584E+00  -0.9731640620E-01   0.3027900084E-02  -0.1501173527E-01
   0.1556976286E+01   0.2571972751E+01   0.6002493842E+00   0.1835315708E-02   0.1049421314E-02   0.2493602204E-03   0.0000000000E+00   0.0000000000E+00   0.0000000000E+00  -0.1099762933E+01  -0.1511905642E+01  -0.1011823070E+01  -0.1242024870E+00   0.2906032640E-02  -0.1391317177E-01
   0.1779760117E+01   0.2571898018E+01   0.6002349218E+00   0.2205726634E-02   0.1133477707E-02   0.2348977803E-03   0.0000000000E+00   0.0000000000E+00   0.0000000000E+00  -0.1034947800E+01  -0.1481570824E+01  -0.9386825310E+00  -0.1296256667E+00   0.7275926148E-02  -0.1398586210E-01
   0.2002599751E+01   0.2572136450E+01   0.6002553378E+00   0.2599750624E-02   0.1415060425E-02   0.2553137902E-03   0.0000000000E+00   0.0000000000E+00   0.0000000000E+00  -0.1885776032E+01  -0.2394593619E+01  -0.1743574094E+01  -0.1301386629E+00   0.1180703170E-01  -0.7765422539E-02
   0.8897664588E+00   0.2366839649E+01   0.6003682776E+00   0.1317862792E-02   0.1657728936E-02   0.3682535837E-03   0.0000000000E+00   0.0000000000E+00   0.0000000000E+00   0.1083318305E+00  -0.3201944085E+00   0.2051956512E+00  -0.2812958333E-01   0.6510652094E-02  -0.1098541657E-01
   0.1112147180E+01   0.2361945421E+01   0.6003772206E+00   0.1720400452E-02   0.1884251306E-02   0.3771965693E-03   0.0000000000E+00   0.0000000000E+00   0.0000000000E+00   0.1138300721E+00  -0.3669465896E+00   0.2204375434E+00  -0.5458193920E-01   0.4122966021E-02  -0.1112060876E-01
   0.1334810172E+01   0.2359571523E+01   0.6003611818E+00   0.2165591539E-02   0.2050222605E-02   0.3611577683E-03   0.0000000000E+00   0.0000000000E+00   0.0000000000E+00   0.1377068758E+00  -0.3829978894E+00   0.2439124739E+00  -0.7888614498E-01   0.2883946007E-02  -0.1039357184E-01
   0.1557672272E+01   0.2358702998E+01   0.6003312011E+00   0.2649672000E-02   0.2193307688E-02   0.3311770894E-03   0.0000000000E+00   0.0000000000E+00   0.0000000000E+00   0.1525357667E+00  -0.4021219551E+00   0.2576882007E+00  -0.1027589362E+00   0.4080797268E-02  -0.9217743836E-02
   0.1780660361E+01   0.2358571180E+01   0.6003054380E+00   0.3166881472E-02   0.2371199831E-02   0.3054139630E-03   0.0000000000E+00   0.0000000000E+00   0.0000000000E+00   0.2141619481E+00  -0.3810701820E+00   0.3319718593E+00  -0.9616942786E-01   0.7782248687E-02  -0.8260646850E-02
   0.2003707561E+01   0.2358905859E+01   0.6002909186E+00   0.3707561496E-02   0.2818888793E-02   0.2908946140E-03   0.0000000000E+00   0.0000000000E+00   0.0000000000E+00   0.9430019585E-01  -0.5504286208E+00   0.2488149620E+00  -0.8592410162E-01   0.1108496019E-01  -0.8320191585E-03
   0.8900054921E+00   0.2156842537E+01   0.6004645362E+00   0.1693152069E-02   0.2786467116E-02   0.4645121590E-03   0.0000000000E+00   0.0000000000E+00   0.0000000000E+00  -0.1544332757E+00  -0.6916035165E+00  -0.5007564768E-01  -0.6041964092E-03   0.7433912356E-02  -0.7675446478E-02
   0.1112458078E+01   0.2150266604E+01   0.6004703417E+00   0.2213327628E-02   0.3154233883E-02   0.4703176983E-03   0.0000000000E+00   0.0000000000E+00   0.0000000000E+00  -0.1742455821E+00  -0.7713901717E+00  -0.5944376310E-01  -0.3335230145E-01   0.3317489333E-02  -0.7456875140E-02
   0.1335251120E+01   0.2147015147E+01   0.6004433626E+00   0.2781780244E-02   0.3413967072E-02   0.4433385618E-03   0.0000000000E+00   0.0000000000E+00   0.0000000000E+00  -0.1779780622E+00  -0.8177461102E+00  -0.6540402001E-01  -0.6008248030E-01   0.1798967658E-02  -0.6486013453E-02
   0.1558282694E+01   0.2145779552E+01   0.6003997458E+00   0.3392184014E-02   0.3633441667E-02   0.3997217974E-03   0.0000000000E+00   0.0000000000E+00   0.0000000000E+00  -0.1764054719E+00  -0.8515758393E+00  -0.6588730007E-01  -0.7985163657E-01   0.3421100123E-02  -0.5097447101E-02
   0.1781461346E+01   0.2145575853E+01   0.6003570440E+00   0.4036536386E-02   0.3913973074E-02   0.3570200373E-03   0.0000000000E+00   0.0000000000E+00   0.0000000000E+00  -0.1875414548E+00  -0.9028489015E+00  -0.6449622776E-01  -0.6512705164E-01   0.5882978028E-02  -0.3257478703E-02
   0.2004702414E+01   0.2145951149E+01   0.6003074323E+00   0.4702413750E-02   0.4489538704E-02   0.3074082821E-03   0.0000000000E+00   0.0000000000E+00   0.0000000000E+00  -0.3169525421E+00  -0.1069408010E+01  -0.1681752434E+00  -0.4951211964E-01   0.7943156360E-02   0.4181647556E-02
   0.8902574288E+00   0.1947196310E+01   0.6005615431E+00   0.2041290792E-02   0.4134839988E-02   0.5615190867E-03   0.0000000000E+00   0.0000000000E+00   0.0000000000E+00  -0.1142958243E+00  -0.7484209136E+00  -0.7469018277E-02   0.3057882445E-01   0.8452601918E-02  -0.5115726170E-02
   0.1112805513E+01   0.1938923410E+01   0.6005613431E+00   0.2671392881E-02   0.4656960327E-02   0.5613190811E-03   0.0000000000E+00   0.0000000000E+00   0.0000000000E+00  -0.1044834793E+00  -0.8014724503E+00   0.1153291745E-01  -0.1362066015E-01   0.2116402339E-02  -0.4588983374E-02
   0.1335734551E+01   0.1934767646E+01   0.6005215255E+00   0.3352470519E-02   0.5010045762E-02   0.5215014548E-03   0.0000000000E+00   0.0000000000E+00   0.0000000000E+00  -0.9940662691E-01  -0.8374441247E+00   0.1121376922E-01  -0.4379097876E-01   0.6666748518E-03  -0.3459797353E-02
   0.1558922403E+01   0.1933139590E+01   0.6004631188E+00   0.4075643169E-02   0.5303770164E-02   0.4630947939E-03   0.0000000000E+00   0.0000000000E+00   0.0000000000E+00  -0.8431374675E-01  -0.8554119948E+00   0.2218225876E-01  -0.6004723365E-01   0.2138862752E-02  -0.1845530623E-02
   0.1782263530E+01   0.1932837225E+01   0.6004001965E+00   0.4831089888E-02   0.5678634919E-02   0.4001724718E-03   0.0000000000E+00   0.0000000000E+00   0.0000000000E+00  -0.1101766673E+00  -0.9158717164E+00   0.5453679449E-02  -0.4104570814E-01   0.3599065680E-02   0.7671158592E-03
   0.2005605014E+01   0.1933189294E+01   0.6003210688E+00   0.5605013522E-02   0.6345173801E-02   0.3210448347E-03   0.0000000000E+00   0.0000000000E+00   0.0000000000E+00  -0.1154843711E+00  -0.9472774652E+00   0.1705933498E-01  -0.2425473651E-01   0.5055693401E-02   0.7446753590E-02
   0.8909491012E+00   0.1737789394E+01   0.6006640614E+00   0.2369792245E-02   0.5682473569E-02   0.6640373576E-03   0.0000000000E+00   0.0000000000E+00   0.0000000000E+00  -0.1505288941E+00  -0.8754310991E+00  -0.4504119725E-01   0.6291272573E-01   0.9371328798E-02  -0.3301090565E-02
   0.1113808267E+01   0.1727850910E+01   0.6006543944E+00   0.3106706911E-02   0.6358859767E-02   0.6543704084E-03   0.0000000000E+00   0.0000000000E+00   0.0000000000E+00  -0.1155981076E+00  -0.9016629587E+00  -0.5011566847E-02   0.1992663957E-02   0.5316024137E-03  -0.2187114822E-02
   0.1336925447E+01   0.1722812227E+01   0.6006005086E+00   0.3894507156E-02   0.6794507086E-02   0.6004846412E-03   0.0000000000E+00   0.0000000000E+00   0.0000000000E+00  -0.1150485491E+00  -0.9372378537E+00  -0.1426080248E-01  -0.3165185123E-01  -0.3386637266E-03  -0.8887102137E-03
   0.1560184403E+01   0.1720783385E+01   0.6005268554E+00   0.4721563326E-02   0.7151634850E-02   0.5268313884E-03   0.0000000000E+00   0.0000000000E+00   0.0000000000E+00  -0.1010042303E+00  -0.9507313152E+00  -0.7166501750E-02  -0.4585709905E-01   0.7653983582E-03   0.8555103733E-03
   0.1783433930E+01   0.1720349239E+01   0.6004430242E+00   0.5576030028E-02   0.7600948824E-02   0.4430002485E-03   0.0000000000E+00   0.0000000000E+00   0.0000000000E+00  -0.1266049439E+00  -0.1002065988E+01  -0.2848621855E-01  -0.2494215658E-01   0.1737676744E-02   0.3880250926E-02
   0.2006444071E+01   0.1720608900E+01   0.6003407051E+00   0.6444071265E-02   0.8329220331E-02   0.3406810678E-03   0.0000000000E+00   0.0000000000E+00   0.0000000000E+00  -0.1092447188E+00  -0.1002428219E+01  -0.2930877885E-03  -0.8419612409E-02   0.3266354643E-02   0.9884175811E-02
   0.8936608934E+00   0.1527985581E+01   0.6007757305E+00   0.2696445386E-02   0.7426391303E-02   0.7757065051E-03   0.0000000000E+00   0.0000000000E+00   0.0000000000E+00  -0.1990020595E+00  -0.1009920107E+01  -0.9726953613E-01   0.9839561970E-01   0.9731949989E-02  -0.1556487917E-03
   0.1117365486E+01   0.1516715828E+01   0.6007511778E+00   0.3540876448E-02   0.8239328150E-02   0.7511538060E-03   0.0000000000E+00   0.0000000000E+00   0.0000000000E+00  -0.1015051648E+00  -0.9685734485E+00  -0.4333152744E-02   0.1176264518E-01  -0.1576655305E-02   0.7184328238E-03
   0.1340603788E+01   0.1511049114E+01   0.6006826172E+00   0.4434548020E-02   0.8735503854E-02   0.6825932216E-03   0.0000000000E+00   0.0000000000E+00   0.0000000000E+00  -0.9779753291E-01  -0.9937562256E+00  -0.1597743064E-01  -0.2500054448E-01  -0.1228222398E-02   0.1655333351E-02
   0.1563384092E+01   0.1508715981E+01   0.6005944339E+00   0.5360522374E-02   0.9136911053E-02   0.5944099165E-03   0.0000000000E+00   0.0000000000E+00   0.0000000000E+00  -0.8098376802E-01  -0.9963663451E+00  -0.8867072392E-02  -0.3917473052E-01  -0.4943926900E-03   0.3266268987E-02
   0.1785653194E+01   0.1508159746E+01   0.6004910942E+00   0.6304584330E-02   0.9633175956E-02   0.4910702357E-03   0.0000000000E+00   0.0000000000E+00   0.0000000000E+00  -0.9254715346E-01  -0.1022653977E+01  -0.2095704104E-01  -0.1761353067E-01   0.3532687160E-03   0.6375210494E-02
   0.2007254922E+01   0.1508296415E+01   0.6003702848E+00   0.7254922406E-02   0.1039831531E-01   0.3702607931E-03   0.0000000000E+00   0.0000000000E+00   0.0000000000E+00  -0.7053267309E-01  -0.1011013417E+01   0.7368416614E-02  -0.1455439749E-02   0.2284311782E-02   0.1210507076E-01
   0.9014497903E+00   0.1315857042E+01   0.6008942678E+00   0.3043880350E-02   0.9389271769E-02   0.8942438243E-03   0.0000000000E+00   0.0000000000E+00   0.0000000000E+00  -0.1589422789E+00  -0.1049259322E+01  -0.6719259352E-01   0.1212469433E+00   0.8753640030E-02   0.2596288947E-04
   0.1126690197E+01   0.1304544291E+01   0.6008505226E+00   0.4006076841E-02   0.1029261058E-01   0.8504986439E-03   0.0000000000E+00   0.0000000000E+00   0.0000000000E+00  -0.4011107584E-01  -0.9837658770E+00   0.3106644941E-01   0.1057277231E-01  -0.3722807889E-02   0.2070058484E-02
   0.1349334530E+01   0.1299090076E+01   0.6007683513E+00   0.5008749661E-02   0.1081304565E-01   0.7683273240E-03   0.0000000000E+00   0.0000000000E+00   0.0000000000E+00  -0.6489289447E-01  -0.1028453201E+01  -0.1370229492E-01  -0.2515808388E-01  -0.1989868703E-02   0.3973567681E-02
   0.1570175695E+01   0.1296837128E+01   0.6006671158E+00   0.6030844964E-02   0.1123097752E-01   0.6670918152E-03   0.0000000000E+00   0.0000000000E+00   0.0000000000E+00  -0.5660430526E-01  -0.1029952610E+01  -0.1738380671E-01  -0.4126616010E-01  -0.1714517599E-02   0.5880241612E-02
   0.1789698484E+01   0.1296280919E+01   0.6005468350E+00   0.7057904312E-02   0.1174133868E-01   0.5468110325E-03   0.0000000000E+00   0.0000000000E+00   0.0000000000E+00  -0.5811802637E-01  -0.1033991358E+01  -0.2352081410E-01  -0.2087313118E-01  -0.1095607191E-02   0.9044888874E-02
   0.2008082086E+01   0.1296352955E+01   0.6004096047E+00   0.8082085772E-02   0.1251611511E-01   0.4095806707E-03   0.0000000000E+00   0.0000000000E+00   0.0000000000E+00  -0.4805579136E-01  -0.1025916955E+01  -0.1205857476E-01  -0.6100481420E-02   0.9471431370E-03   0.1507915039E-01
   0.9186143399E+00   0.1097665176E+01   0.6010255755E+00   0.3461968906E-02   0.1162026552E-01   0.1025551483E-02   0.0000000000E+00   0.0000000000E+00   0.0000000000E+00  -0.3264464002E+00  -0.1285870332E+01  -0.2458583854E+00   0.1711968368E+00   0.5203886829E-02   0.1063174048E-01
   0.1145386843E+01   0.1089831607E+01   0.6009518304E+00   0.4544883176E-02   0.1252271680E-01   0.9518063780E-03   0.0000000000E+00   0.0000000000E+00   0.0000000000E+00  -0.8843158399E-01  -0.1111151508E+01  -0.6132798944E-01   0.7978204485E-02  -0.7477152546E-02   0.9172084937E-02
   0.1365415301E+01   0.1086360617E+01   0.6008545882E+00   0.5662640830E-02   0.1301471739E-01   0.8545642338E-03   0.0000000000E+00   0.0000000000E+00   0.0000000000E+00  -0.7153379797E-01  -0.1102822521E+01  -0.7007225577E-01  -0.3226649906E-01  -0.4588852748E-02   0.8961352706E-02
   0.1581809825E+01   0.1084934762E+01   0.6007422743E+00   0.6784984535E-02   0.1341348221E-01   0.7422502994E-03   0.0000000000E+00   0.0000000000E+00   0.0000000000E+00  -0.3202698562E-01  -0.1063183746E+01  -0.4432641648E-01  -0.5659048807E-01  -0.4647358543E-02   0.9339991831E-02
   0.1796108586E+01   0.1084627791E+01   0.6006084747E+00   0.7897356051E-02   0.1390187143E-01   0.6084507050E-03   0.0000000000E+00   0.0000000000E+00   0.0000000000E+00  -0.1371723800E-01  -0.1034092018E+01  -0.3319781220E-01  -0.3954385986E-01  -0.4731369671E-02   0.1164305483E-01
   0.2008996786E+01   0.1084755847E+01   0.6004544848E+00   0.8996785682E-02   0.1465112740E-01   0.4544607867E-03   0.0000000000E+00   0.0000000000E+00   0.0000000000E+00   0.9840936114E-02  -0.1001021742E+01  -0.1515354859E-01  -0.2691769978E-01  -0.3262545674E-02   0.1815479976E-01
  -0.1800333824E+01  -0.6142848335E+00   0.8033831093E+00  -0.1349982371E-01   0.3561786755E-01   0.3383097326E-02   0.0000000000E+00   0.0000000000E+00   0.0000000000E+00   0.7943729199E-01  -0.1114194615E+01  -0.7494148054E-02  -0.7230917824E-01   0.1033257711E-02  -0.1086436351E-01
  -0.1807948044E+01  -0.4004407940E+00   0.8030336972E+00  -0.1410859412E-01   0.3313009798E-01   0.3033685249E-02   0.0000000000E+00   0.0000000000E+00   0.0000000000E+00   0.1288460482E+00  -0.1063965445E+01   0.3648236140E-01  -0.6826626877E-01  -0.1003649534E-01   0.9816295891E-02
  -0.2015422770E+01  -0.3991511786E+00   0.8026569872E+00  -0.1542276982E-01   0.3297319736E-01   0.2656975164E-02   0.0000000000E+00   0.0000000000E+00   0.0000000000E+00   0.2212419551E+00  -0.9148464986E+00   0.8910484954E-01  -0.3824860349E-01   0.2559030408E-03  -0.3879248525E-02
  -0.2014859221E+01  -0.6126219696E+00   0.8030770162E+00  -0.1485922098E-01   0.3531890444E-01   0.3077004245E-02   0.0000000000E+00   0.0000000000E+00   0.0000000000E+00   0.1380689948E+00  -0.1019497606E+01   0.2842459461E-01  -0.5233427205E-01   0.1990819836E-02  -0.2334131257E-01
  -0.1814685027E+01  -0.1903524677E+00   0.8028742375E+00  -0.1453773717E-01   0.3069940429E-01   0.2874225517E-02   0.0000000000E+00   0.0000000000E+00   0.0000000000E+00  -0.4800642106E-01  -0.1203182457E+01  -0.7351778970E-01  -0.5137467696E-01  -0.1243226609E-01   0.2220859769E-01
  -0.2015711552E+01  -0.1882556177E+00   0.8024261378E+00  -0.1571155188E-01   0.3072213127E-01   0.2426125816E-02   0.0000000000E+00   0.0000000000E+00   0.0000000000E+00   0.1515711652E+00  -0.9351222098E+00   0.6486543672E-01  -0.2382954450E-01   0.4232239971E-02   0.1224027181E-01
  -0.1819629580E+01   0.1605167857E-01   0.8026940657E+00  -0.1456156045E-01   0.2832302657E-01   0.2694053690E-02   0.0000000000E+00   0.0000000000E+00   0.0000000000E+00  -0.1353848386E+00  -0.1266854825E+01  -0.1221915793E+00  -0.2681438970E-02  -0.8836097795E-02   0.4489669282E-02
  -0.2015646168E+01   0.1718964228E-01   0.8022265802E+00  -0.1564616778E-01   0.2857195828E-01   0.2226568160E-02   0.0000000000E+00   0.0000000000E+00   0.0000000000E+00   0.1403385833E+00  -0.9188774191E+00   0.8459339915E-01  -0.1624896986E-03   0.9216024573E-02   0.4837982027E-02
  -0.1583855839E+01  -0.6179137085E+00   0.8036240908E+00  -0.1210149869E-01   0.3574515846E-01   0.3624078841E-02   0.0000000000E+00   0.0000000000E+00   0.0000000000E+00   0.8009527052E-01  -0.1144790854E+01   0.2233989210E-02  -0.7795488569E-01  -0.2744608656E-02  -0.1601724870E-01
  -0.1599217108E+01  -0.4026001908E+00   0.8032855626E+00  -0.1275687849E-01   0.3314731322E-01   0.3285550567E-02   0.0000000000E+00   0.0000000000E+00   0.0000000000E+00   0.2160052294E+00  -0.1018414274E+01   0.1346858825E+00  -0.8898515058E-01  -0.2301938218E-01   0.1129072236E-01
  -0.1614287290E+01  -0.1908491728E+00   0.8031728679E+00  -0.1336088972E-01   0.3058735720E-01   0.3172855927E-02   0.0000000000E+00   0.0000000000E+00   0.0000000000E+00   0.1965660131E-01  -0.1174693314E+01   0.2575909594E-01  -0.7190968513E-01  -0.3073847972E-01   0.2678008578E-01
  -0.1627780497E+01   0.1941579431E-01   0.8030031739E+00  -0.1349180652E-01   0.2804840531E-01   0.3003161923E-02   0.0000000000E+00   0.0000000000E+00   0.0000000000E+00  -0.8435433590E-01  -0.1255986511E+01  -0.3282903981E-01   0.3326596916E-02  -0.2884159582E-01   0.4159716923E-02
  -0.1362883348E+01  -0.6246186019E+00   0.8038264947E+00  -0.1063861754E-01   0.3594003906E-01   0.3826482652E-02   0.0000000000E+00   0.0000000000E+00   0.0000000000E+00   0.1093397097E+00  -0.1152102420E+01   0.3092893912E-01  -0.6114334072E-01   0.3096539932E-03  -0.2423008345E-01
  -0.1389076492E+01  -0.4054198729E+00   0.8034825784E+00  -0.1135542240E-01   0.3320272108E-01   0.3482566385E-02   0.0000000000E+00   0.0000000000E+00   0.0000000000E+00   0.2852783527E+00  -0.9983335045E+00   0.2010114768E+00  -0.9647441439E-01  -0.2578918608E-01   0.1099368844E-01
  -0.1414694061E+01  -0.1921882963E+00   0.8034225880E+00  -0.1217746121E-01   0.3052189571E-01   0.3422575975E-02   0.0000000000E+00   0.0000000000E+00   0.0000000000E+00   0.3187327342E-01  -0.1202607740E+01   0.6156693636E-01  -0.9038040932E-01  -0.3857933095E-01   0.3162331128E-01
  -0.1435056723E+01   0.1768151145E-01   0.8032732931E+00  -0.1242069299E-01   0.2787998945E-01   0.3273281080E-02   0.0000000000E+00   0.0000000000E+00   0.0000000000E+00  -0.8466364941E-01  -0.1294151151E+01   0.3029128751E-03   0.3148404253E-02  -0.3788046295E-01   0.4764461319E-02
  -0.1130972701E+01  -0.6350434674E+00   0.8040463150E+00  -0.9071900865E-02   0.3641155855E-01   0.4046303021E-02   0.0000000000E+00   0.0000000000E+00   0.0000000000E+00   0.4691405594E-01  -0.1217128721E+01  -0.5839404531E-02   0.6356596844E-01   0.1781568736E-01  -0.3810728333E-01
  -0.1178975804E+01  -0.4075217226E+00   0.8037123303E+00  -0.9919383721E-02   0.3340536541E-01   0.3712318307E-02   0.0000000000E+00   0.0000000000E+00   0.0000000000E+00   0.4395265384E+00  -0.8540258682E+00   0.3906930388E+00  -0.2623349174E-01   0.5035390003E-02   0.2103974637E-01
  -0.1219583984E+01  -0.1920811805E+00   0.8036996351E+00  -0.1101207397E-01   0.3052732646E-01   0.3699623077E-02   0.0000000000E+00   0.0000000000E+00   0.0000000000E+00   0.2433168169E+00  -0.1021171500E+01   0.3189860234E+00  -0.6585467922E-01  -0.1077247701E-01   0.3915073765E-01
  -0.1246600805E+01   0.1602794486E-01   0.8035608161E+00  -0.1136427507E-01   0.2775074786E-01   0.3560804076E-02   0.0000000000E+00   0.0000000000E+00   0.0000000000E+00   0.6497839956E-01  -0.1193688955E+01   0.1900750602E+00   0.2493687883E-01  -0.1804069566E-01   0.5417987444E-02
  -0.8659684492E+00  -0.6487420624E+00   0.8042581071E+00  -0.7379753188E-02   0.3821422360E-01   0.4258095134E-02   0.0000000000E+00   0.0000000000E+00   0.0000000000E+00   0.1124295486E+00  -0.1099856963E+01   0.1218093464E+00   0.2243956732E+00  -0.9221034358E-02   0.1446773839E-01
  -0.9764856532E+00  -0.3988490871E+00   0.8043011197E+00  -0.8664889215E-02   0.3419838591E-01   0.4301107690E-02   0.0000000000E+00   0.0000000000E+00   0.0000000000E+00   0.1130178641E+00  -0.1201567136E+01   0.2291132593E+00   0.6585824746E-01   0.8890016769E-01   0.6787956821E-01
  -0.1037434430E+01  -0.1842637329E+00   0.8042699428E+00  -0.9956089812E-02   0.3081024008E-01   0.4269930774E-02   0.0000000000E+00   0.0000000000E+00   0.0000000000E+00   0.5253669755E-03  -0.1407391413E+01   0.1707980606E+00  -0.2863320188E-01   0.3915109653E-01   0.3650674614E-01
  -0.1068071903E+01   0.1548398923E-01   0.8041078024E+00  -0.1033932283E-01   0.2774529823E-01   0.4107790404E-02   0.0000000000E+00   0.0000000000E+00   0.0000000000E+00  -0.1837700289E+00  -0.1578635356E+01   0.3126061561E-01   0.2003408845E-01   0.2881583660E-01   0.8592641434E-03
  -0.8834052559E+00  -0.1674987483E+00   0.8050582404E+00  -0.9023236908E-02   0.3092053968E-01   0.5058228401E-02   0.0000000000E+00   0.0000000000E+00   0.0000000000E+00   0.8321463956E-01  -0.1540957579E+01   0.4014517382E+00   0.8266846339E-02   0.1205830484E+00   0.4844197215E-01
  -0.9115559466E+00   0.2238372499E-01   0.8048844686E+00  -0.9370029559E-02   0.2743626699E-01   0.4884456623E-02   0.0000000000E+00   0.0000000000E+00   0.0000000000E+00  -0.9562118929E-01  -0.1712467848E+01   0.2533064847E+00  -0.1192094951E-01   0.1026890314E+00   0.1472615946E-01
  -0.7398778465E+00  -0.1338554333E+00   0.8062332974E+00  -0.8190479489E-02   0.3086723269E-01   0.6233285398E-02   0.0000000000E+00   0.0000000000E+00   0.0000000000E+00  -0.2080025852E+01  -0.3948736433E+01  -0.1463114222E+01   0.1090828388E+00   0.1666954750E+00   0.1086977913E+00
  -0.7583595981E+00   0.2716495357E-01   0.8060950741E+00  -0.8359598065E-02   0.2716495357E-01   0.6095062113E-02   0.0000000000E+00   0.0000000000E+00   0.0000000000E+00  -0.1868504889E+01  -0.3800607234E+01  -0.1258674762E+01   0.5870149839E-02   0.1607616394E+00   0.2761227086E-02
  -0.8231306747E+00  -0.3594507452E+00   0.8050891046E+00  -0.7927842691E-02   0.3462864179E-01   0.5089092617E-02   0.0000000000E+00   0.0000000000E+00   0.0000000000E+00  -0.4608640868E+00  -0.1925793589E+01  -0.1390266405E+00   0.1415467260E+00   0.8317618257E-01   0.1271105931E+00
  -0.6841350078E+00  -0.2886236277E+00   0.8058539051E+00  -0.7365154807E-02   0.3461397029E-01   0.5853893075E-02   0.0000000000E+00   0.0000000000E+00   0.0000000000E+00  -0.1667650153E+01  -0.3366921676E+01  -0.1172025823E+01   0.2155476653E+00  -0.1330965407E-01   0.2402775691E+00
  -0.7203378400E+00  -0.5260222404E+00   0.8044514858E+00  -0.6859811027E-02   0.3815825264E-01   0.4451473789E-02   0.0000000000E+00   0.0000000000E+00   0.0000000000E+00  -0.1197547808E+00  -0.1409027376E+01  -0.2512673025E-01   0.2895485623E+00  -0.7773672318E-01   0.1910645861E+00
  -0.5948395780E+00  -0.4267213689E+00   0.8047785864E+00  -0.6301288988E-02   0.3816857513E-01   0.4778574438E-02   0.0000000000E+00   0.0000000000E+00   0.0000000000E+00  -0.5035799098E+00  -0.2082533938E+01  -0.3912473979E+00   0.3244545979E+00  -0.1425166541E+00   0.2817526484E+00
  -0.5675946231E+00  -0.6544468797E+00   0.8035531811E+00  -0.5546665084E-02   0.4154654334E-01   0.3553169150E-02   0.0000000000E+00   0.0000000000E+00   0.0000000000E+00   0.6553482755E+00  -0.5000333561E+00   0.4237501142E+00   0.3508767330E+00  -0.1172500742E+00   0.8979825011E-01
  -0.4746574513E+00  -0.5432814654E+00   0.8035784566E+00  -0.5071973266E-02   0.4151716864E-01   0.3578444625E-02   0.0000000000E+00   0.0000000000E+00   0.0000000000E+00   0.1369497949E+00  -0.1175054065E+01  -0.9443964136E-01   0.4030529846E+00  -0.1624713658E+00   0.2251041734E+00
  -0.3794115301E+00  -0.7475694768E+00   0.8030196681E+00  -0.4146856060E-02   0.4467614925E-01   0.3019656092E-02   0.0000000000E+00   0.0000000000E+00   0.0000000000E+00   0.8797618831E+00  -0.1066624237E+00   0.4996833419E+00   0.3538706886E+00  -0.8638583509E-01   0.1551937868E-01
  -0.3277742905E+00  -0.6321389106E+00   0.8027431652E+00  -0.3872398512E-02   0.4431330840E-01   0.2743153207E-02   0.0000000000E+00   0.0000000000E+00   0.0000000000E+00   0.2861971640E+00  -0.7145384334E+00  -0.1266895348E+00   0.3576366844E+00  -0.1360737801E+00   0.9081775521E-01
  -0.1863380048E+00  -0.8074254343E+00   0.8026874791E+00  -0.2900075833E-02   0.4675114674E-01   0.2687467079E-02   0.0000000000E+00   0.0000000000E+00   0.0000000000E+00   0.9627006834E+00   0.1529531181E+00   0.5205543830E+00   0.2126730468E+00  -0.5016935803E-01   0.1420054558E-01
  -0.1639560602E+00  -0.6863125342E+00   0.8023383535E+00  -0.2748399213E-02   0.4615732281E-01   0.2338341534E-02   0.0000000000E+00   0.0000000000E+00   0.0000000000E+00   0.4042565126E+00  -0.3972909210E+00  -0.7659458517E-01   0.1890970474E+00  -0.5645456473E-01   0.4467353106E-01
   0.7325694439E-02  -0.8334124533E+00   0.8026262260E+00  -0.1767975561E-02   0.4727895569E-01   0.2626213997E-02   0.0000000000E+00   0.0000000000E+00   0.0000000000E+00   0.1091106018E+01   0.3531242865E+00   0.6482217698E+00  -0.8566707104E-02   0.9000958320E-02   0.1669596088E-01
   0.4272873623E-02  -0.7033918797E+00   0.8022731095E+00  -0.1709720377E-02   0.4658427831E-01   0.2273097543E-02   0.0000000000E+00   0.0000000000E+00   0.0000000000E+00   0.1043825812E+00  -0.6418123436E+00  -0.3759106771E+00  -0.5653204456E-01   0.1025755252E-01   0.5335899519E-01
  -0.6222420619E+00  -0.7900868584E+00   0.8038226580E+00  -0.5697457851E-02   0.4226625657E-01   0.3822645959E-02   0.0000000000E+00   0.0000000000E+00   0.0000000000E+00   0.4535365516E+00  -0.6248887338E+00   0.2817563211E+00   0.3434793452E+00  -0.9250386294E-01  -0.1200306589E-01
  -0.4085127939E+00  -0.8811848952E+00   0.8034475987E+00  -0.4315935900E-02   0.4545382676E-01   0.3447586679E-02   0.0000000000E+00   0.0000000000E+00   0.0000000000E+00   0.3530835205E+00  -0.5909862817E+00   0.5755749716E-01   0.3369654837E+00  -0.6606411430E-01  -0.8603561487E-02
  -0.2024838664E+00  -0.9407472275E+00   0.8031705425E+00  -0.3137339357E-02   0.4748043749E-01   0.3170530524E-02   0.0000000000E+00   0.0000000000E+00   0.0000000000E+00   0.5719748047E+00  -0.2063309813E+00   0.2188777385E+00   0.2046585914E+00  -0.4268791725E-01  -0.3618671611E-02
   0.1656634674E-02  -0.9717414137E+00   0.8031340619E+00  -0.2069929326E-02   0.4802932627E-01   0.3134049890E-02   0.0000000000E+00   0.0000000000E+00   0.0000000000E+00   0.6036635748E+00  -0.1137787614E+00   0.2441506145E+00   0.9448139635E-02   0.7141822620E-02  -0.3387260732E-02
  -0.2132978257E+00  -0.1097607225E+01   0.8036929900E+00  -0.3315549692E-02   0.4838839474E-01   0.3692978040E-02   0.0000000000E+00   0.0000000000E+00   0.0000000000E+00   0.5422441611E+00  -0.2088852965E+00   0.2656531313E+00   0.1700095701E+00  -0.3166606730E-01  -0.1507781174E-02
  -0.2409045902E-02  -0.1131360410E+01   0.8036872481E+00  -0.2299112902E-02   0.4891896017E-01   0.3687236143E-02   0.0000000000E+00   0.0000000000E+00   0.0000000000E+00   0.5732030099E+00  -0.1312874818E+00   0.2906594058E+00  -0.7406019118E-02   0.5461230527E-02   0.1373436734E-02
  -0.2198623960E+00  -0.1269183266E+01   0.8042486759E+00  -0.3479579966E-02   0.4944802374E-01   0.4248663931E-02   0.0000000000E+00   0.0000000000E+00   0.0000000000E+00   0.4250180268E+00  -0.3237021082E+00   0.2135564226E+00   0.1486751408E+00  -0.2808502961E-01  -0.5173396122E-02
  -0.4970149827E-02  -0.1303010362E+01   0.8042531161E+00  -0.2510116827E-02   0.4992435843E-01   0.4253104080E-02   0.0000000000E+00   0.0000000000E+00   0.0000000000E+00   0.5048439530E+00  -0.2037140382E+00   0.2853396963E+00  -0.2721657763E-02   0.3636279575E-02  -0.2150262073E-02
  -0.2235787468E+00  -0.1448507894E+01   0.8048194413E+00  -0.3658603831E-02   0.5062748630E-01   0.4819429320E-02   0.0000000000E+00   0.0000000000E+00   0.0000000000E+00   0.3647630330E+00  -0.3909248699E+00   0.2083934118E+00   0.1295807137E+00  -0.2445505730E-01  -0.6377753555E-02
  -0.6525743611E-02  -0.1480632453E+01   0.8048333329E+00  -0.2728387611E-02   0.5103120733E-01   0.4833320883E-02   0.0000000000E+00   0.0000000000E+00   0.0000000000E+00   0.4203310453E+00  -0.3009928106E+00   0.2563864971E+00   0.5135613169E-03   0.8453229866E-03  -0.5092581355E-02
  -0.2256929958E+00  -0.1631672759E+01   0.8054020655E+00  -0.3867991771E-02   0.5190478148E-01   0.5402053489E-02   0.0000000000E+00   0.0000000000E+00   0.0000000000E+00   0.2773732655E+00  -0.4896649424E+00   0.1697634067E+00   0.1137057798E+00  -0.2126949764E-01  -0.7338845918E-02
  -0.7562519045E-02  -0.1660975096E+01   0.8054201451E+00  -0.2969918045E-02   0.5223012355E-01   0.5420133112E-02   0.0000000000E+00   0.0000000000E+00   0.0000000000E+00   0.3366375465E+00  -0.4025136414E+00   0.2207080291E+00   0.3965715146E-02  -0.1675809737E-02  -0.6646928942E-02
  -0.2269829601E+00  -0.1816694241E+01   0.8059880745E+00  -0.4098394134E-02   0.5326224900E-01   0.5988062531E-02   0.0000000000E+00   0.0000000000E+00   0.0000000000E+00   0.2005973826E+00  -0.5781566753E+00   0.1348473298E+00   0.9773217725E-01  -0.1738801818E-01  -0.5884674986E-02
  -0.8344449369E-02  -0.1842523192E+01   0.8060113033E+00  -0.3223330369E-02   0.5351199823E-01   0.6011291340E-02   0.0000000000E+00   0.0000000000E+00   0.0000000000E+00   0.2440573128E+00  -0.5139416152E+00   0.1702887976E+00   0.2527582226E-02  -0.4226818457E-02  -0.7346054434E-02
  -0.2278701927E+00  -0.2002591748E+01   0.8065728151E+00  -0.4337977694E-02   0.5468641171E-01   0.6572803140E-02   0.0000000000E+00   0.0000000000E+00   0.0000000000E+00   0.1486751699E+00  -0.6445515556E+00   0.1150134391E+00   0.8749720142E-01  -0.1247975614E-01  -0.4969961716E-02
  -0.8994203976E-02  -0.2024567734E+01   0.8066078720E+00  -0.3476728976E-02   0.5486904605E-01   0.6607859990E-02   0.0000000000E+00   0.0000000000E+00   0.0000000000E+00   0.1449498894E+00  -0.6319537259E+00   0.1083397762E+00   0.1981263657E-02  -0.7042959395E-02  -0.7219448357E-02
  -0.2292258075E+00  -0.2187880368E+01   0.8071642279E+00  -0.4604377511E-02   0.5615964150E-01   0.7164215935E-02   0.0000000000E+00   0.0000000000E+00   0.0000000000E+00   0.9724799971E-01  -0.7082481143E+00   0.9198198532E-01   0.8161182243E-01  -0.7752056602E-02  -0.4352484448E-02
  -0.1213062124E-01  -0.2202679850E+01   0.8071961673E+00  -0.3756317241E-02   0.5626584993E-01   0.7196155332E-02   0.0000000000E+00   0.0000000000E+00   0.0000000000E+00   0.4746277828E-01  -0.7482235955E+00   0.4154383080E-01   0.3419236232E-04  -0.1171943051E-01  -0.5776672665E-02
  -0.2302077338E+00  -0.2374235512E+01   0.8077656261E+00  -0.4871539757E-02   0.5768644793E-01   0.7765614077E-02   0.0000000000E+00   0.0000000000E+00   0.0000000000E+00   0.6476491865E-01  -0.7486901669E+00   0.8388322469E-01   0.7618575165E-01  -0.2168788594E-02  -0.3014145647E-02
  -0.1345597324E-01  -0.2385062109E+01   0.8078037822E+00  -0.4035116237E-02   0.5775129057E-01   0.7803770188E-02   0.0000000000E+00   0.0000000000E+00   0.0000000000E+00  -0.3856027935E-01  -0.8479405958E+00  -0.1712593148E-01  -0.8578794695E-02  -0.1726525954E-01  -0.5027299412E-02
  -0.2312904384E+00  -0.2561384683E+01   0.8083765258E+00  -0.5133428414E-02   0.5925297685E-01   0.8376513767E-02   0.0000000000E+00   0.0000000000E+00   0.0000000000E+00   0.2165124595E-01  -0.7963792207E+00   0.6023372330E-01   0.7292307629E-01   0.3683248248E-02   0.7620897568E-03
  -0.1470650601E-01  -0.2568633462E+01   0.8084245748E+00  -0.4308587013E-02   0.5929002823E-01   0.8424562849E-02   0.0000000000E+00   0.0000000000E+00   0.0000000000E+00  -0.1326952831E+00  -0.9480969549E+00  -0.8743869668E-01  -0.2500996013E-01  -0.2250710596E-01   0.2087519973E-04
  -0.2327390354E+00  -0.2749168461E+01   0.8090150827E+00  -0.5358625431E-02   0.6084578911E-01   0.9015070676E-02   0.0000000000E+00   0.0000000000E+00   0.0000000000E+00   0.6853444544E-01  -0.7469631550E+00   0.1284389241E+00   0.6163143832E-01   0.8490538824E-02  -0.1238316745E-01
  -0.1636475490E-01  -0.2752833710E+01   0.8090609986E+00  -0.4557592899E-02   0.6085456993E-01   0.9060986643E-02   0.0000000000E+00   0.0000000000E+00   0.0000000000E+00  -0.9645420155E-01  -0.9025284538E+00  -0.3099395317E-01  -0.4252825047E-01  -0.2704725662E-01  -0.1126114437E-01
  -0.2324638674E+00  -0.2937544954E+01   0.8097948246E+00  -0.5493135444E-02   0.6245504616E-01   0.9794812583E-02   0.0000000000E+00   0.0000000000E+00   0.0000000000E+00  -0.3128212952E+00  -0.1088060631E+01  -0.1688879916E+00   0.5239596294E-01   0.1841065291E-01  -0.2680508826E-01
  -0.1624339999E-01  -0.2937589941E+01   0.8098319917E+00  -0.4822772985E-02   0.6241005888E-01   0.9831979665E-02   0.0000000000E+00   0.0000000000E+00   0.0000000000E+00  -0.4757014564E+00  -0.1240538323E+01  -0.3389587954E+00  -0.6094535746E-01  -0.3375498849E-01  -0.2536055506E-01
  -0.4264367983E+00  -0.1044949423E+01   0.8039085860E+00  -0.4433350275E-02   0.4658220698E-01   0.3908573967E-02   0.0000000000E+00   0.0000000000E+00   0.0000000000E+00   0.3987894494E+00  -0.4978334525E+00   0.1671372214E+00   0.2977513378E+00  -0.5594649611E-01  -0.7025781374E-02
  -0.4364334263E+00  -0.1223552291E+01   0.8044348407E+00  -0.4521421327E-02   0.4790621938E-01   0.4434828705E-02   0.0000000000E+00   0.0000000000E+00   0.0000000000E+00   0.3170945519E+00  -0.5497639594E+00   0.1537837544E+00   0.2557271561E+00  -0.5623465934E-01  -0.1235029089E-01
  -0.4418021999E+00  -0.1408799906E+01   0.8049652774E+00  -0.4642899860E-02   0.4934630356E-01   0.4965265443E-02   0.0000000000E+00   0.0000000000E+00   0.0000000000E+00   0.2437251978E+00  -0.6104002323E+00   0.1301980381E+00   0.2188536151E+00  -0.4643113004E-01  -0.8978635127E-02
  -0.4447663870E+00  -0.1597171077E+01   0.8055026833E+00  -0.4805818019E-02   0.5085610324E-01   0.5502671336E-02   0.0000000000E+00   0.0000000000E+00   0.0000000000E+00   0.1745942320E+00  -0.6715146265E+00   0.1032207898E+00   0.1864354720E+00  -0.3674196914E-01  -0.8665314779E-02
  -0.4465495692E+00  -0.1787122714E+01   0.8060452904E+00  -0.5002801167E-02   0.5241252584E-01   0.6045278444E-02   0.0000000000E+00   0.0000000000E+00   0.0000000000E+00   0.1142565891E+00  -0.7273283013E+00   0.7744652343E-01   0.1591378455E+00  -0.2729683790E-01  -0.6859742623E-02
  -0.4477690900E+00  -0.1977905398E+01   0.8065926747E+00  -0.5222186023E-02   0.5400407173E-01   0.6592662702E-02   0.0000000000E+00   0.0000000000E+00   0.0000000000E+00   0.7321970562E-01  -0.7681003325E+00   0.6299851416E-01   0.1389207780E+00  -0.2006780896E-01  -0.6536926194E-02
  -0.4488994317E+00  -0.2168890010E+01   0.8071550972E+00  -0.5470915688E-02   0.5562400017E-01   0.7155085217E-02   0.0000000000E+00   0.0000000000E+00   0.0000000000E+00   0.2736952758E-01  -0.8140935104E+00   0.4156176792E-01   0.1232363172E+00  -0.1471162144E-01  -0.6200647507E-02
  -0.4498618710E+00  -0.2360343648E+01   0.8077280122E+00  -0.5726204959E-02   0.5727081184E-01   0.7728000170E-02   0.0000000000E+00   0.0000000000E+00   0.0000000000E+00   0.2626268801E-02  -0.8393431790E+00   0.3663114389E-01   0.1070049424E+00  -0.1075614483E-01  -0.5428401325E-02
  -0.4508513327E+00  -0.2552315198E+01   0.8083118732E+00  -0.5978118679E-02   0.5894092248E-01   0.8311861199E-02   0.0000000000E+00   0.0000000000E+00   0.0000000000E+00  -0.2779298288E-01  -0.8699200652E+00   0.2214076665E-01   0.9287470185E-01  -0.8062917850E-02  -0.1153445692E-02
  -0.4519940484E+00  -0.2744784500E+01   0.8089071382E+00  -0.6188558396E-02   0.6062635988E-01   0.8907126205E-02   0.0000000000E+00   0.0000000000E+00   0.0000000000E+00   0.2504886443E-01  -0.8129105506E+00   0.8787373381E-01   0.5539650158E-01  -0.4068242778E-02  -0.8895250142E-02
  -0.4518889647E+00  -0.2937683475E+01   0.8096095887E+00  -0.6207720745E-02   0.6231652538E-01   0.9609576683E-02   0.0000000000E+00   0.0000000000E+00   0.0000000000E+00  -0.2275515109E+00  -0.1035031086E+01  -0.1065795627E+00   0.1776822683E-01   0.1524749729E-01  -0.1915499321E-01
  -0.6459262670E+00  -0.9767239426E+00   0.8042461557E+00  -0.5722970029E-02   0.4389342744E-01   0.4246143713E-02   0.0000000000E+00   0.0000000000E+00   0.0000000000E+00   0.3786622195E+00  -0.6836078206E+00   0.2417065513E+00   0.2818885369E+00  -0.7703945051E-01  -0.2498336407E-01
  -0.6567861122E+00  -0.1170807121E+01   0.8047450924E+00  -0.5677549226E-02   0.4571270935E-01   0.4745080447E-02   0.0000000000E+00   0.0000000000E+00   0.0000000000E+00   0.9500311642E-01  -0.9092658683E+00   0.2523378065E-01   0.2349021580E+00  -0.5440914265E-01  -0.2189844423E-01
  -0.6621561290E+00  -0.1365734799E+01   0.8051949517E+00  -0.5711401022E-02   0.4757239053E-01   0.5194939658E-02   0.0000000000E+00   0.0000000000E+00   0.0000000000E+00   0.7155864057E-01  -0.9063325275E+00   0.2832169804E-01   0.2087366649E+00  -0.3753135747E-01  -0.9615034428E-02
  -0.6651451681E+00  -0.1560948990E+01   0.8056474385E+00  -0.5808124101E-02   0.4941734996E-01   0.5647426511E-02   0.0000000000E+00   0.0000000000E+00   0.0000000000E+00   0.2621694287E-01  -0.9179361576E+00   0.7486742168E-02   0.1837080421E+00  -0.2569970761E-01  -0.7669560490E-02
  -0.6670831090E+00  -0.1756595465E+01   0.8061105761E+00  -0.5957211020E-02   0.5123618481E-01   0.6110564053E-02   0.0000000000E+00   0.0000000000E+00   0.0000000000E+00   0.1391526572E-01  -0.9032830965E+00   0.1307317887E-01   0.1655276681E+00  -0.1525537405E-01  -0.5261301773E-02
  -0.6685277611E+00  -0.1952689891E+01   0.8065914390E+00  -0.6144085102E-02   0.5302976933E-01   0.6591426979E-02   0.0000000000E+00   0.0000000000E+00   0.0000000000E+00   0.1560877895E-02  -0.8942010203E+00   0.1499753297E-01   0.1537298970E+00  -0.5791553880E-02  -0.5954585650E-02
  -0.6697752285E+00  -0.2149083758E+01   0.8070999163E+00  -0.6366233540E-02   0.5480442192E-01   0.7099904255E-02   0.0000000000E+00   0.0000000000E+00   0.0000000000E+00  -0.2919108498E-01  -0.9082393399E+00  -0.1051734159E-02   0.1489306543E+00   0.4046203742E-02  -0.7317233379E-02
  -0.6708773340E+00  -0.2345808375E+01   0.8076313557E+00  -0.6604728001E-02   0.5656875455E-01   0.7631343737E-02   0.0000000000E+00   0.0000000000E+00   0.0000000000E+00  -0.6605544463E-01  -0.9338716978E+00  -0.2498136153E-01   0.1480527393E+00   0.1432886175E-01  -0.8386186888E-02
  -0.6719152356E+00  -0.2542907549E+01   0.8081836779E+00  -0.6846430630E-02   0.5833237079E-01   0.8183665932E-02   0.0000000000E+00   0.0000000000E+00   0.0000000000E+00  -0.1170906042E+00  -0.9795846105E+00  -0.6541196607E-01   0.1569445963E+00   0.2475439548E-01  -0.7804629992E-02
  -0.6729135957E+00  -0.2740379023E+01   0.8087478172E+00  -0.7051273684E-02   0.6010110693E-01   0.8747805177E-02   0.0000000000E+00   0.0000000000E+00   0.0000000000E+00  -0.1440837768E+00  -0.1003380349E+01  -0.8515491072E-01   0.1413313419E+00   0.3239336381E-01  -0.8535178060E-02
  -0.6729867976E+00  -0.2938126311E+01   0.8093425508E+00  -0.7010273646E-02   0.6187368861E-01   0.9342538841E-02   0.0000000000E+00   0.0000000000E+00   0.0000000000E+00  -0.2433739649E+00  -0.1094510503E+01  -0.1697821187E+00   0.1244941464E+00   0.5678943106E-01  -0.9272198788E-02
  -0.8778701423E+00  -0.9015707382E+00   0.8045970309E+00  -0.7160186257E-02   0.4121434581E-01   0.4597018863E-02   0.0000000000E+00   0.0000000000E+00   0.0000000000E+00   0.9991516390E-02  -0.1170903625E+01   0.6131215289E-02   0.2001633464E+00  -0.4476766482E-01  -0.2614272327E-01
  -0.8826251047E+00  -0.1117931679E+01   0.8049338253E+00  -0.6932200710E-02   0.4367249136E-01   0.4933813255E-02   0.0000000000E+00   0.0000000000E+00   0.0000000000E+00   0.6019734996E-01  -0.1047147537E+01   0.6415218084E-01   0.1761385578E+00  -0.2662464838E-01  -0.7908514779E-02
  -0.8850326087E+00  -0.1323191035E+01   0.8052940560E+00  -0.6859555700E-02   0.4592264544E-01   0.5294043970E-02   0.0000000000E+00   0.0000000000E+00   0.0000000000E+00   0.5004847085E-01  -0.1016806761E+01   0.5436825759E-01   0.1703256363E+00  -0.2372222156E-01  -0.8213541696E-02
  -0.8868190760E+00  -0.1525042334E+01   0.8056769244E+00  -0.6876360968E-02   0.4804499645E-01   0.5676912430E-02   0.0000000000E+00   0.0000000000E+00   0.0000000000E+00   0.4234868839E-01  -0.9744096797E+00   0.5467535508E-01   0.1546883190E+00  -0.1759012003E-01  -0.4328339433E-02
  -0.8884140519E+00  -0.1726244937E+01   0.8060807793E+00  -0.6965663932E-02   0.5007647268E-01   0.6080767285E-02   0.0000000000E+00   0.0000000000E+00   0.0000000000E+00   0.3738451760E-01  -0.9368039582E+00   0.5510944629E-01   0.1425307009E+00  -0.1282712664E-01  -0.2676815300E-02
  -0.8898577513E+00  -0.1927628963E+01   0.8065018228E+00  -0.7108015343E-02   0.5203106721E-01   0.6501810815E-02   0.0000000000E+00   0.0000000000E+00   0.0000000000E+00   0.4736940199E-01  -0.8873588954E+00   0.6805539186E-01   0.1312303563E+00  -0.8108023608E-02  -0.1969018913E-02
  -0.8911920736E+00  -0.2129300022E+01   0.8069409466E+00  -0.7294172562E-02   0.5391416790E-01   0.6940934625E-02   0.0000000000E+00   0.0000000000E+00   0.0000000000E+00   0.6499511536E-01  -0.8333831349E+00   0.8670216846E-01   0.1226962541E+00  -0.2957348925E-02  -0.2373364194E-02
  -0.8924406478E+00  -0.2331235504E+01   0.8073919089E+00  -0.7508427765E-02   0.5572833581E-01   0.7391896851E-02   0.0000000000E+00   0.0000000000E+00   0.0000000000E+00   0.9541891909E-01  -0.7704232292E+00   0.1139491076E+00   0.1148218279E+00   0.2972267146E-02  -0.2845530328E-02
  -0.8935799794E+00  -0.2533473873E+01   0.8078541409E+00  -0.7737775446E-02   0.5747899715E-01   0.7854128915E-02   0.0000000000E+00   0.0000000000E+00   0.0000000000E+00   0.1382269341E+00  -0.7014490251E+00   0.1484690447E+00   0.1134321373E+00   0.1045005674E-01  -0.5867663779E-02
  -0.8945426025E+00  -0.2736092130E+01   0.8083300117E+00  -0.7944194500E-02   0.5917784041E-01   0.8329999670E-02   0.0000000000E+00   0.0000000000E+00   0.0000000000E+00   0.1408414828E+00  -0.6823611768E+00   0.1382180643E+00   0.8862208648E-01   0.2089834328E-01  -0.5676722298E-02
  -0.8950210057E+00  -0.2939153205E+01   0.8087834291E+00  -0.7925017695E-02   0.6084679470E-01   0.8783417147E-02   0.0000000000E+00   0.0000000000E+00   0.0000000000E+00   0.1917283732E+00  -0.6426012795E+00   0.1489828434E+00   0.6484411372E-01   0.4599174640E-01  -0.3771918017E-02
  -0.1117295899E+01  -0.2732296631E+01   0.8082533167E+00  -0.8875288853E-02   0.5912048930E-01   0.8253304715E-02   0.0000000000E+00   0.0000000000E+00   0.0000000000E+00  -0.1072408827E+00  -0.9842345872E+00  -0.9254468605E-01   0.1177500174E-01  -0.9104965944E-02   0.2198738668E-02
  -0.1117821327E+01  -0.2939057667E+01   0.8085944795E+00  -0.8948916804E-02   0.6094233251E-01   0.8594467454E-02   0.0000000000E+00   0.0000000000E+00   0.0000000000E+00   0.9011898401E-01  -0.8112701498E+00   0.2344528758E-01  -0.2808154353E-01   0.5996901653E-02   0.8700455602E-02
  -0.1340632283E+01  -0.2729829054E+01   0.8081239343E+00  -0.9850583143E-02   0.5906202593E-01   0.8123922294E-02   0.0000000000E+00   0.0000000000E+00   0.0000000000E+00  -0.4655121965E-01  -0.9640561554E+00  -0.2788223962E-01   0.3636253547E-01   0.1187641822E-01   0.2345383013E-02
  -0.1341232644E+01  -0.2939001479E+01   0.8084080412E+00  -0.1006578400E-01   0.6099852102E-01   0.8408029210E-02   0.0000000000E+00   0.0000000000E+00   0.0000000000E+00   0.1826836887E+00  -0.7728355099E+00   0.9721762366E-01   0.2235859926E-01   0.2102528805E-01   0.1085553909E-01
  -0.1564458143E+01  -0.2728221170E+01   0.8079870751E+00  -0.1086427266E-01   0.5918455980E-01   0.7987063057E-02   0.0000000000E+00   0.0000000000E+00   0.0000000000E+00  -0.9686774548E-01  -0.1049864182E+01  -0.7131675600E-01   0.1281835522E-01   0.1848382696E-01   0.3655304545E-02
  -0.1565124038E+01  -0.2938782675E+01   0.8082270657E+00  -0.1125442784E-01   0.6121732467E-01   0.8227053713E-02   0.0000000000E+00   0.0000000000E+00   0.0000000000E+00   0.1704541186E+00  -0.8280576178E+00   0.7596412508E-01   0.1827448484E-01   0.2362673045E-01   0.1408203329E-01
  -0.1788628402E+01  -0.2726978028E+01   0.8079257513E+00  -0.1190883169E-01   0.5965713233E-01   0.7925739348E-02   0.0000000000E+00   0.0000000000E+00   0.0000000000E+00   0.8119280325E-01  -0.9192962178E+00   0.1300688466E+00  -0.6007633649E-01  -0.1371578669E-01   0.3765758295E-02
  -0.1789348575E+01  -0.2938177081E+01   0.8081553457E+00  -0.1248929550E-01   0.6182291899E-01   0.8155333737E-02   0.0000000000E+00   0.0000000000E+00   0.0000000000E+00   0.3396720880E+00  -0.7076259668E+00   0.2659710553E+00  -0.6486275916E-01  -0.1459311480E-01   0.1205070243E-01
  -0.2012977814E+01  -0.2725342220E+01   0.8082599700E+00  -0.1297781432E-01   0.6084113985E-01   0.8259957964E-02   0.0000000000E+00   0.0000000000E+00   0.0000000000E+00  -0.4467098758E+00  -0.1584047420E+01  -0.2758052071E+00  -0.1199048920E+00  -0.4959948154E-01   0.4645903676E-02
  -0.2013745266E+01  -0.2936562600E+01   0.8084976419E+00  -0.1374526573E-01   0.6343739952E-01   0.8497629915E-02   0.0000000000E+00   0.0000000000E+00   0.0000000000E+00  -0.1730082384E+00  -0.1356479228E+01  -0.1212531714E+00  -0.1402168997E+00  -0.5278294462E-01   0.1888246732E-01
  -0.1116316322E+01  -0.2526015260E+01   0.8078297653E+00  -0.8661392378E-02   0.5724647017E-01   0.7829753271E-02   0.0000000000E+00   0.0000000000E+00   0.0000000000E+00  -0.1015784030E+00  -0.9973768047E+00  -0.6182282863E-01   0.4786698896E-01  -0.1179825479E-01  -0.6152840313E-02
  -0.1339732511E+01  -0.2521060990E+01   0.8077185245E+00  -0.9621721253E-02   0.5707760006E-01   0.7718512511E-02   0.0000000000E+00   0.0000000000E+00   0.0000000000E+00  -0.2503287206E-01  -0.9574597929E+00   0.2375820101E-01   0.4533623447E-01   0.1092664138E-01  -0.7670520831E-02
  -0.1563723887E+01  -0.2517969433E+01   0.8075953247E+00  -0.1061566668E-01   0.5710142688E-01   0.7595312750E-02   0.0000000000E+00   0.0000000000E+00   0.0000000000E+00  -0.5636193676E-01  -0.1022865568E+01   0.1907874692E-02   0.4328586842E-02   0.1527634616E-01  -0.8601187773E-02
  -0.1788111128E+01  -0.2516016103E+01   0.8075431796E+00  -0.1163903786E-01   0.5743899749E-01   0.7543167611E-02   0.0000000000E+00   0.0000000000E+00   0.0000000000E+00   0.8345020813E-01  -0.9311080683E+00   0.1672105110E+00  -0.5937235339E-01  -0.1283829722E-01  -0.6601521225E-02
  -0.2012685299E+01  -0.2514288132E+01   0.8078287089E+00  -0.1268529884E-01   0.5820756763E-01   0.7828696889E-02   0.0000000000E+00   0.0000000000E+00   0.0000000000E+00  -0.3793987870E+00  -0.1518089191E+01  -0.1849004479E+00  -0.1050005045E+00  -0.4359663344E-01  -0.1680066247E-01
  -0.1115136474E+01  -0.2320084644E+01   0.8073767319E+00  -0.8448924463E-02   0.5531256569E-01   0.7376719915E-02   0.0000000000E+00   0.0000000000E+00   0.0000000000E+00  -0.9915647540E-01  -0.1021451357E+01  -0.5150539544E-01   0.6379642770E-01  -0.1128555547E-01  -0.5199075877E-02
  -0.1338676699E+01  -0.2312592116E+01   0.8072757096E+00  -0.9428628901E-02   0.5503073372E-01   0.7275697595E-02   0.0000000000E+00   0.0000000000E+00   0.0000000000E+00  -0.4282514974E-01  -0.1002337853E+01   0.1502837693E-01   0.4772064812E-01   0.9474099050E-02  -0.5006459667E-02
  -0.1562920519E+01  -0.2307956166E+01   0.8071545394E+00  -0.1044279869E-01   0.5495720388E-01   0.7154527406E-02   0.0000000000E+00   0.0000000000E+00   0.0000000000E+00  -0.5095077753E-01  -0.1042882263E+01   0.1563995262E-01   0.7432714679E-02   0.1098254798E-01  -0.5466805908E-02
  -0.1787634353E+01  -0.2305254234E+01   0.8071079907E+00  -0.1148603253E-01   0.5515454562E-01   0.7107978742E-02   0.0000000000E+00   0.0000000000E+00   0.0000000000E+00   0.1326147804E-01  -0.1027025628E+01   0.1069172279E+00  -0.3445012616E-01  -0.1014204095E-01  -0.3423744138E-02
  -0.2012550491E+01  -0.2303333216E+01   0.8072923295E+00  -0.1255049136E-01   0.5557186405E-01   0.7292317525E-02   0.0000000000E+00   0.0000000000E+00   0.0000000000E+00  -0.3006400735E+00  -0.1439747716E+01  -0.1197397282E+00  -0.5710469971E-01  -0.2978856402E-01  -0.1942486778E-01
  -0.1113853681E+01  -0.2114412506E+01   0.8069279261E+00  -0.8266671124E-02   0.5331520424E-01   0.6927914113E-02   0.0000000000E+00   0.0000000000E+00   0.0000000000E+00  -0.9243599706E-01  -0.1047664790E+01  -0.4358382502E-01   0.7926971815E-01  -0.9954648264E-02  -0.2821757973E-02
  -0.1337543714E+01  -0.2104343594E+01   0.8068295807E+00  -0.9282104477E-02   0.5291777596E-01   0.6829568683E-02   0.0000000000E+00   0.0000000000E+00   0.0000000000E+00  -0.4713207850E-01  -0.1039258374E+01   0.1143239821E-01   0.4963387339E-01   0.8333407320E-02  -0.2502104060E-02
  -0.1562086229E+01  -0.2098120955E+01   0.8067038395E+00  -0.1033330930E-01   0.5275199525E-01   0.6703827505E-02   0.0000000000E+00   0.0000000000E+00   0.0000000000E+00  -0.3658638819E-01  -0.1058513021E+01   0.2861353464E-01   0.1010348380E-01   0.7660275613E-02  -0.2723262694E-02
  -0.1787187341E+01  -0.2094642431E+01   0.8066485676E+00  -0.1141310091E-01   0.5281134931E-01   0.6648555593E-02   0.0000000000E+00   0.0000000000E+00   0.0000000000E+00  -0.2420507966E-01  -0.1091234250E+01   0.6642510831E-01  -0.1725029168E-01  -0.7487040045E-02  -0.2153503728E-02
  -0.2012511857E+01  -0.2092425019E+01   0.8067338429E+00  -0.1251185662E-01   0.5295762086E-01   0.6733830855E-02   0.0000000000E+00   0.0000000000E+00   0.0000000000E+00  -0.2181445410E+00  -0.1359174742E+01  -0.6304651578E-01  -0.2736140706E-01  -0.1854932757E-01  -0.1602282791E-01
  -0.1112516516E+01  -0.1908961580E+01   0.8064952304E+00  -0.8124225813E-02   0.5124612026E-01   0.6495218437E-02   0.0000000000E+00   0.0000000000E+00   0.0000000000E+00  -0.9887125689E-01  -0.1092724396E+01  -0.5171322223E-01   0.9078159595E-01  -0.8591135714E-02  -0.1851455751E-03
  -0.1336392573E+01  -0.1896276969E+01   0.8063900891E+00  -0.9186552631E-02   0.5073569103E-01   0.6390077062E-02   0.0000000000E+00   0.0000000000E+00   0.0000000000E+00  -0.5033434020E-01  -0.1078530624E+01   0.4189245610E-02   0.4922867604E-01   0.8215937512E-02  -0.3516154706E-03
  -0.1561272096E+01  -0.1888429258E+01   0.8062534089E+00  -0.1028473584E-01   0.5048671207E-01   0.6253396946E-02   0.0000000000E+00   0.0000000000E+00   0.0000000000E+00  -0.3195633786E-01  -0.1085677199E+01   0.2626803551E-01   0.1201058724E-01   0.6018144160E-02  -0.5799593446E-03
  -0.1786798450E+01  -0.1884141960E+01   0.8061760172E+00  -0.1140973043E-01   0.5042180046E-01   0.6176005186E-02   0.0000000000E+00   0.0000000000E+00   0.0000000000E+00  -0.4123810238E-01  -0.1133210728E+01   0.3780825265E-01  -0.4322646725E-02  -0.5172919294E-02  -0.1204023962E-02
  -0.2012550949E+01  -0.1881538203E+01   0.8061825724E+00  -0.1255094876E-01   0.5036646734E-01   0.6182560381E-02   0.0000000000E+00   0.0000000000E+00   0.0000000000E+00  -0.1598304644E+00  -0.1306055970E+01  -0.3419899409E-01  -0.7018028040E-02  -0.1186172521E-01  -0.1199635252E-01
  -0.1111197654E+01  -0.1703727454E+01   0.8060854849E+00  -0.8034414414E-02   0.4909625552E-01   0.6085472875E-02   0.0000000000E+00   0.0000000000E+00   0.0000000000E+00  -0.1221470835E+00  -0.1159104650E+01  -0.7717661329E-01   0.9902848453E-01  -0.7064487222E-02   0.1029938070E-02
  -0.1335372988E+01  -0.1688370116E+01   0.8059617637E+00  -0.9151877575E-02   0.4848265417E-01   0.5961751700E-02   0.0000000000E+00   0.0000000000E+00   0.0000000000E+00  -0.4901726993E-01  -0.1115000849E+01  -0.1567050526E-02   0.4478268676E-01   0.9553479708E-02   0.2168354892E-03
  -0.1560653932E+01  -0.1678857931E+01   0.8058069837E+00  -0.1030398211E-01   0.4816435856E-01   0.5806971658E-02   0.0000000000E+00   0.0000000000E+00   0.0000000000E+00  -0.2936500066E-01  -0.1114882870E+01   0.1765630811E-01   0.9739255764E-02   0.5816893082E-02  -0.7337573547E-04
  -0.1786589275E+01  -0.1673728353E+01   0.8056981761E+00  -0.1147950477E-01   0.4799842722E-01   0.5698164138E-02   0.0000000000E+00   0.0000000000E+00   0.0000000000E+00  -0.3594811686E-01  -0.1150312184E+01   0.2519579192E-01   0.1148017278E-02  -0.3413931023E-02  -0.1376566329E-02
  -0.2012667604E+01  -0.1670675021E+01   0.8056465812E+00  -0.1266760390E-01   0.4779411881E-01   0.5646569184E-02   0.0000000000E+00   0.0000000000E+00   0.0000000000E+00  -0.1210816873E+00  -0.1275007869E+01  -0.2632836170E-01   0.2777956424E-02  -0.9246230451E-02  -0.9502132069E-02
  -0.1110166260E+01  -0.1498508543E+01   0.8056957508E+00  -0.8011049927E-02   0.4685464685E-01   0.5695738766E-02   0.0000000000E+00   0.0000000000E+00   0.0000000000E+00  -0.1445871141E+00  -0.1228612283E+01  -0.1034317392E+00   0.1027292524E+00  -0.5193811389E-02   0.9007367871E-03
  -0.1334957328E+01  -0.1480442580E+01   0.8055423335E+00  -0.9193868361E-02   0.4615683024E-01   0.5542321530E-02   0.0000000000E+00   0.0000000000E+00   0.0000000000E+00  -0.3855035990E-01  -0.1142990664E+01  -0.1824238350E-02   0.3467105466E-01   0.1189562740E-01  -0.1149433608E-02
  -0.1560695297E+01  -0.1469289323E+01   0.8053647501E+00  -0.1040661675E-01   0.4578874712E-01   0.5364738149E-02   0.0000000000E+00   0.0000000000E+00   0.0000000000E+00  -0.2392532535E-01  -0.1140345652E+01   0.7653540853E-02   0.1896708613E-02   0.6068740596E-02  -0.1273185685E-02
  -0.1786835134E+01  -0.1463331007E+01   0.8052202885E+00  -0.1163596369E-01   0.4555175276E-01   0.5220276472E-02   0.0000000000E+00   0.0000000000E+00   0.0000000000E+00  -0.1590960065E-01  -0.1150076519E+01   0.2231765271E-01  -0.8158396404E-03  -0.2314324963E-02  -0.2561402830E-02
  -0.2012872318E+01  -0.1459837694E+01   0.8051236258E+00  -0.1287231794E-01   0.4523883647E-01   0.5123613773E-02   0.0000000000E+00   0.0000000000E+00   0.0000000000E+00  -0.9317097682E-01  -0.1255204099E+01  -0.3119496868E-01   0.4550914064E-02  -0.9235182550E-02  -0.9492365421E-02
  -0.1110053204E+01  -0.1292371570E+01   0.8053212747E+00  -0.8075373856E-02   0.4450410991E-01   0.5321262719E-02   0.0000000000E+00   0.0000000000E+00   0.0000000000E+00  -0.1765913529E+00  -0.1308966724E+01  -0.1407708942E+00   0.1013241225E+00  -0.2194702273E-02  -0.4632465311E-02
  -0.1336046863E+01  -0.1271814601E+01   0.8051270930E+00  -0.9334733391E-02   0.4375312903E-01   0.5127080999E-02   0.0000000000E+00   0.0000000000E+00   0.0000000000E+00  -0.1280239112E-01  -0.1154958849E+01   0.8793445266E-02   0.1672624192E-01   0.1449840047E-01  -0.4904332514E-02
  -0.1562157072E+01  -0.1259320368E+01   0.8049262771E+00  -0.1061383178E-01   0.4336167233E-01   0.4926265050E-02   0.0000000000E+00   0.0000000000E+00   0.0000000000E+00  -0.1026067153E-01  -0.1155971943E+01   0.1560524004E-02  -0.1301904713E-01   0.5793950810E-02  -0.3676573943E-02
  -0.1787942031E+01  -0.1252719072E+01   0.8047465316E+00  -0.1189742129E-01   0.4308876769E-01   0.4746519579E-02   0.0000000000E+00   0.0000000000E+00   0.0000000000E+00   0.1551132783E-01  -0.1135922615E+01   0.2682567499E-01  -0.1087811660E-01  -0.1715784797E-02  -0.4330838138E-02
  -0.2013179479E+01  -0.1248936572E+01   0.8046083714E+00  -0.1317947864E-01   0.4270406827E-01   0.4608359350E-02   0.0000000000E+00   0.0000000000E+00   0.0000000000E+00  -0.6358492147E-01  -0.1231500949E+01  -0.3752409403E-01  -0.1024470139E-02  -0.1004689174E-01  -0.1171827050E-01
  -0.1111762220E+01  -0.1082950029E+01   0.8049431492E+00  -0.8255540314E-02   0.4201588120E-01   0.4943137196E-02   0.0000000000E+00   0.0000000000E+00   0.0000000000E+00  -0.1183948221E+00  -0.1296383588E+01  -0.9348951522E-01   0.8892346447E-01   0.2661063649E-02  -0.5836286031E-02
  -0.1339842418E+01  -0.1061036222E+01   0.8047123053E+00  -0.9603958060E-02   0.4126060843E-01   0.4712293262E-02   0.0000000000E+00   0.0000000000E+00   0.0000000000E+00   0.2529605905E-01  -0.1152407543E+01   0.2734467849E-01  -0.7317971003E-02   0.1538854754E-01  -0.7581148825E-02
  -0.1565933075E+01  -0.1048161256E+01   0.8044930177E+00  -0.1094981519E-01   0.4088140401E-01   0.4493005661E-02   0.0000000000E+00   0.0000000000E+00   0.0000000000E+00   0.1408929270E-01  -0.1158815251E+01   0.2683776887E-02  -0.3188478555E-01   0.4582021650E-02  -0.7085519386E-02
  -0.1790344752E+01  -0.1041448216E+01   0.8042812434E+00  -0.1228217229E-01   0.4061259397E-01   0.4281231436E-02   0.0000000000E+00   0.0000000000E+00   0.0000000000E+00   0.4633416920E-01  -0.1119873219E+01   0.2815603325E-01  -0.2650451316E-01  -0.1138180551E-02  -0.7217187786E-02
  -0.2013601993E+01  -0.1037699415E+01   0.8040961144E+00  -0.1360199263E-01   0.4019789543E-01   0.4096102354E-02   0.0000000000E+00   0.0000000000E+00   0.0000000000E+00  -0.2549505063E-01  -0.1194685047E+01  -0.3934336950E-01  -0.1223285144E-01  -0.9616809857E-02  -0.1642935042E-01
  -0.1116866494E+01  -0.8660091345E+00   0.8045716524E+00  -0.8596804413E-02   0.3934763051E-01   0.4571640450E-02   0.0000000000E+00   0.0000000000E+00   0.0000000000E+00  -0.1665722189E+00  -0.1373983841E+01  -0.1445693046E+00   0.7743835071E-01   0.1331045590E-01  -0.2723011761E-01
  -0.1347895117E+01  -0.8461804594E+00   0.8042972667E+00  -0.1002809728E-01   0.3866420162E-01   0.4297254665E-02   0.0000000000E+00   0.0000000000E+00   0.0000000000E+00   0.5303262819E-01  -0.1158647777E+01   0.3155961316E-01  -0.4078848904E-01   0.1610075948E-01  -0.1861240024E-01
  -0.1572890753E+01  -0.8349145166E+00   0.8040606995E+00  -0.1143383289E-01   0.3834586239E-01   0.4060687463E-02   0.0000000000E+00   0.0000000000E+00   0.0000000000E+00   0.6083359200E-01  -0.1136536132E+01   0.2121840202E-01  -0.6245866374E-01   0.4385163095E-02  -0.1322259536E-01
  -0.1794396057E+01  -0.8290439570E+00   0.8038230754E+00  -0.1280773731E-01   0.3812494601E-01   0.3823063445E-02   0.0000000000E+00   0.0000000000E+00   0.0000000000E+00   0.8206042381E-01  -0.1097869179E+01   0.3003231602E-01  -0.5690654002E-01   0.1360684274E-02  -0.1082202290E-01
  -0.2014157561E+01  -0.8257195703E+00   0.8035805865E+00  -0.1415756124E-01   0.3773196966E-01   0.3580574494E-02   0.0000000000E+00   0.0000000000E+00   0.0000000000E+00   0.4519776039E-01  -0.1120303503E+01  -0.1539502422E-01  -0.3932081704E-01  -0.4709457499E-02  -0.2210061238E-01
  -0.7089358100E+00   0.7220799494E+00   0.8023834052E+00  -0.4082930954E-02   0.1438953140E-01   0.2383393195E-02   0.0000000000E+00   0.0000000000E+00   0.0000000000E+00   0.1161624472E+00  -0.9948340440E+00   0.1123841341E+00  -0.3187369469E+00  -0.3954436700E-01  -0.4071188865E-01
  -0.8009608196E+00   0.5203865840E+00   0.8032978306E+00  -0.5713979596E-02   0.1807303003E-01   0.3297818644E-02   0.0000000000E+00   0.0000000000E+00   0.0000000000E+00   0.1753195175E-01  -0.1296163165E+01   0.1659146449E+00  -0.1659035069E+00   0.6967810185E-01  -0.1147603157E+00
  -0.6357521163E+00   0.4239073046E+00   0.8043431260E+00  -0.5460058334E-02   0.1741995856E-01   0.4343113975E-02   0.0000000000E+00   0.0000000000E+00   0.0000000000E+00  -0.9908455332E+00  -0.2537127981E+01  -0.6237066965E+00  -0.2378834220E+00  -0.4999615104E-01  -0.2614814111E+00
  -0.5332969780E+00   0.5452565132E+00   0.8028813266E+00  -0.3996825026E-02   0.1389850920E-01   0.2881314631E-02   0.0000000000E+00   0.0000000000E+00   0.0000000000E+00  -0.2183690419E+00  -0.1472798636E+01  -0.1742324888E+00  -0.3389184468E+00  -0.1963008423E+00  -0.2448012395E+00
  -0.8656009081E+00   0.3469176919E+00   0.8040398784E+00  -0.7473135090E-02   0.2142948189E-01   0.4039866360E-02   0.0000000000E+00   0.0000000000E+00   0.0000000000E+00   0.2517748375E-01  -0.1487453060E+01   0.2669889413E+00  -0.4116778162E-01   0.1016912904E+00  -0.9970301878E-01
  -0.7057723746E+00   0.2929639040E+00   0.8053063003E+00  -0.6873284615E-02   0.2086080302E-01   0.5306288269E-02   0.0000000000E+00   0.0000000000E+00   0.0000000000E+00  -0.1768555166E+01  -0.3528684094E+01  -0.1228570253E+01  -0.1176985315E+00   0.9475658592E-01  -0.1892522197E+00
  -0.9031214152E+00   0.1830489236E+00   0.8045604473E+00  -0.8797053187E-02   0.2451123764E-01   0.4560435281E-02   0.0000000000E+00   0.0000000000E+00   0.0000000000E+00  -0.1069525262E+00  -0.1686221906E+01   0.2161128704E+00  -0.2284549039E-02   0.1124229699E+00  -0.5326962498E-01
  -0.7455241243E+00   0.1597603415E+00   0.8058341475E+00  -0.7897154328E-02   0.2409005246E-01   0.5834135509E-02   0.0000000000E+00   0.0000000000E+00   0.0000000000E+00  -0.1856446381E+01  -0.3740530317E+01  -0.1253400458E+01  -0.5125035148E-01   0.1458406148E+00  -0.7985069061E-01
  -0.1063322562E+01   0.1911334392E+00   0.8037360349E+00  -0.9748952207E-02   0.2508658117E-01   0.3736022879E-02   0.0000000000E+00   0.0000000000E+00   0.0000000000E+00   0.2925277801E-01  -0.1359033154E+01   0.1915314571E+00   0.7260919138E-01   0.2335817226E-01  -0.4767740832E-01
  -0.1241204370E+01   0.1983128402E+00   0.8032736279E+00  -0.1079046040E-01   0.2530055417E-01   0.3273615869E-02   0.0000000000E+00   0.0000000000E+00   0.0000000000E+00   0.9540509828E-01  -0.1188076603E+01   0.1819660920E+00   0.1125766850E+00  -0.2663155447E-01  -0.2264773423E-01
  -0.1429112420E+01   0.2046853326E+00   0.8030028432E+00  -0.1186357020E-01   0.2550301161E-01   0.3002831207E-02   0.0000000000E+00   0.0000000000E+00   0.0000000000E+00  -0.3697886371E-01  -0.1260670419E+01   0.2032598655E-01   0.9219589304E-01  -0.3466407866E-01  -0.1822323191E-01
  -0.1622307658E+01   0.2098674851E+00   0.8027412041E+00  -0.1295697750E-01   0.2573598207E-01   0.2741192063E-02   0.0000000000E+00   0.0000000000E+00   0.0000000000E+00  -0.3204008362E-01  -0.1214636009E+01  -0.3707872851E-02   0.7784162880E-01  -0.2814296449E-01  -0.1524484689E-01
  -0.1817625668E+01   0.2118404518E+00   0.8024407042E+00  -0.1406636765E-01   0.2606850976E-01   0.2440692248E-02   0.0000000000E+00   0.0000000000E+00   0.0000000000E+00  -0.9418116497E-01  -0.1234284203E+01  -0.9870725156E-01   0.4740728064E-01  -0.9184076298E-02  -0.1154065519E-01
  -0.2015176744E+01   0.2148920493E+00   0.8019941296E+00  -0.1517674383E-01   0.2650912530E-01   0.1994117641E-02   0.0000000000E+00   0.0000000000E+00   0.0000000000E+00   0.1433186609E+00  -0.9277429890E+00   0.7534047145E-01   0.2434904340E-01   0.7772434286E-02  -0.3708244993E-02
  -0.1036212270E+01   0.3662951817E+00   0.8032110653E+00  -0.8420770301E-02   0.2242627074E-01   0.3211053300E-02   0.0000000000E+00   0.0000000000E+00   0.0000000000E+00   0.3041533949E+00  -0.1076403041E+01   0.3534088893E+00   0.8385198064E-01   0.2247653815E-01  -0.6238691589E-01
  -0.1221438936E+01   0.3798791732E+00   0.8028563212E+00  -0.9570886041E-02   0.2282982718E-01   0.2856309205E-02   0.0000000000E+00   0.0000000000E+00   0.0000000000E+00   0.1903166414E+00  -0.1141568649E+01   0.1727403800E+00   0.1567677506E+00  -0.3169849932E-01  -0.3559971605E-01
  -0.1414623353E+01   0.3905570901E+00   0.8026290483E+00  -0.1076660323E-01   0.2311966806E-01   0.2629036293E-02   0.0000000000E+00   0.0000000000E+00   0.0000000000E+00   0.1377741228E+00  -0.1128484307E+01   0.1084802886E+00   0.1361079492E+00  -0.3054931968E-01  -0.2718833948E-01
  -0.1612373294E+01   0.3990056084E+00   0.8024119930E+00  -0.1197392416E-01   0.2342303238E-01   0.2411981039E-02   0.0000000000E+00   0.0000000000E+00   0.0000000000E+00   0.8297544425E-01  -0.1139159506E+01   0.4167766331E-01   0.1175778258E+00  -0.2768643636E-01  -0.2008931100E-01
  -0.1812623129E+01   0.4043070929E+00   0.8021472637E+00  -0.1318846864E-01   0.2383455195E-01   0.2147251698E-02   0.0000000000E+00   0.0000000000E+00   0.0000000000E+00   0.2709703342E-01  -0.1148802351E+01  -0.3319485603E-01   0.7393469732E-01  -0.1000757238E-01  -0.1496089137E-01
  -0.2014398459E+01   0.4088882876E+00   0.8017498070E+00  -0.1439845889E-01   0.2445701463E-01   0.1749795023E-02   0.0000000000E+00   0.0000000000E+00   0.0000000000E+00   0.1819121049E+00  -0.9312525759E+00   0.7181775676E-01   0.3590796830E-01   0.3593831128E-02  -0.1941161272E-02
  -0.9950811678E+00   0.5486590583E+00   0.8026707491E+00  -0.6748419828E-02   0.1968285625E-01   0.2670737104E-02   0.0000000000E+00   0.0000000000E+00   0.0000000000E+00   0.4079380811E+00  -0.9158652100E+00   0.3550708181E+00  -0.1808000519E-01   0.2275908365E-01  -0.2880027037E-01
  -0.1194223641E+01   0.5652572661E+00   0.8024246129E+00  -0.8090371262E-02   0.2030904611E-01   0.2424600927E-02   0.0000000000E+00   0.0000000000E+00   0.0000000000E+00   0.4103277880E+00  -0.9410767269E+00   0.2891043244E+00   0.1157699059E+00  -0.1825105602E-01  -0.6446841911E-02
  -0.1396003932E+01   0.5779453273E+00   0.8022787054E+00  -0.9442181768E-02   0.2071402026E-01   0.2278693407E-02   0.0000000000E+00   0.0000000000E+00   0.0000000000E+00   0.2912957478E+00  -0.9968188178E+00   0.1850606664E+00   0.1172468535E+00  -0.2134064478E-01  -0.3760348634E-02
  -0.1600216381E+01   0.5884351912E+00   0.8021208800E+00  -0.1077150092E-01   0.2109529416E-01   0.2120867979E-02   0.0000000000E+00   0.0000000000E+00   0.0000000000E+00   0.2070561339E+00  -0.1041711417E+01   0.1066312204E+00   0.1175064043E+00  -0.1877218266E-01  -0.2211132779E-02
  -0.1806285593E+01   0.5959776929E+00   0.8019059637E+00  -0.1208636345E-01   0.2158895086E-01   0.1905951706E-02   0.0000000000E+00   0.0000000000E+00   0.0000000000E+00   0.1300471743E+00  -0.1073846977E+01   0.2629766308E-01   0.7909627659E-01  -0.6239083826E-02  -0.3870379100E-03
  -0.2013389113E+01   0.6018838051E+00   0.8015818505E+00  -0.1338911286E-01   0.2236405609E-01   0.1581838453E-02   0.0000000000E+00   0.0000000000E+00   0.0000000000E+00   0.1995143458E+00  -0.9556964854E+00   0.6387505007E-01   0.4428985111E-01   0.2082106554E-02   0.1483142982E-01
  -0.9513250748E+00   0.7433107590E+00   0.8024209689E+00  -0.5476013796E-02   0.1690346895E-01   0.2420956890E-02   0.0000000000E+00   0.0000000000E+00   0.0000000000E+00  -0.5522422645E-01  -0.1302370919E+01  -0.1058751210E+00  -0.1596019148E+00   0.2034220060E-01   0.4576204922E-01
  -0.1165980244E+01   0.7549979660E+00   0.8022645749E+00  -0.6871723745E-02   0.1781117596E-01   0.2264562893E-02   0.0000000000E+00   0.0000000000E+00   0.0000000000E+00   0.1290702980E+00  -0.1147212061E+01   0.3620090170E-01   0.4419560494E-01   0.1413269206E-01   0.3869951010E-01
  -0.1375913287E+01   0.7669462870E+00   0.8021363504E+00  -0.8228087272E-02   0.1832339305E-01   0.2136338414E-02   0.0000000000E+00   0.0000000000E+00   0.0000000000E+00   0.9234310383E-01  -0.1159918145E+01   0.2521298194E-03   0.7727488062E-01   0.1601083834E-02   0.2867928173E-01
  -0.1586595217E+01   0.7792015219E+00   0.8019911221E+00  -0.9556457441E-02   0.1876033792E-01   0.1991110067E-02   0.0000000000E+00   0.0000000000E+00   0.0000000000E+00   0.9062873908E-01  -0.1139654926E+01   0.2077109564E-03   0.1012152849E+00   0.6115497508E-03   0.1978310061E-01
  -0.1798791275E+01   0.7895299769E+00   0.8017985213E+00  -0.1087425470E-01   0.1930707493E-01   0.1798509275E-02   0.0000000000E+00   0.0000000000E+00   0.0000000000E+00   0.8615087476E-01  -0.1114417395E+01  -0.7750875928E-02   0.7559697735E-01   0.4171577092E-02   0.1639520617E-01
  -0.2012202358E+01   0.7958819499E+00   0.8015461431E+00  -0.1220235785E-01   0.2020116987E-01   0.1546131080E-02   0.0000000000E+00   0.0000000000E+00   0.0000000000E+00   0.1441980007E+00  -0.1027204373E+01   0.3275995440E-01   0.5095820867E-01   0.4896579454E-02   0.2935316240E-01
  -0.1794208135E+01   0.9844367447E+00   0.8017772419E+00  -0.9670104963E-02   0.1702266367E-01   0.1777229935E-02   0.0000000000E+00   0.0000000000E+00   0.0000000000E+00   0.6150310829E-01  -0.1109652352E+01   0.1495499219E-01   0.5432192909E-01   0.5887135651E-02   0.1961321589E-01
  -0.2010942905E+01   0.9914349233E+00   0.8015855700E+00  -0.1094290539E-01   0.1797299731E-01   0.1585557960E-02   0.0000000000E+00   0.0000000000E+00   0.0000000000E+00   0.5002955968E-01  -0.1111778916E+01  -0.4908541723E-02   0.3505455739E-01   0.2029358265E-02   0.3060318879E-01
  -0.1792042035E+01   0.1181951914E+01   0.8017721958E+00  -0.8609555100E-02   0.1473728392E-01   0.1772183849E-02   0.0000000000E+00   0.0000000000E+00   0.0000000000E+00  -0.2003001260E-01  -0.1152236263E+01  -0.1584053562E-01   0.2913280933E-01   0.4240318599E-02   0.1513865929E-01
  -0.2009800635E+01   0.1188872378E+01   0.8016353082E+00  -0.9800634557E-02   0.1569978789E-01   0.1635296190E-02   0.0000000000E+00   0.0000000000E+00   0.0000000000E+00  -0.3573693159E-01  -0.1173199150E+01  -0.3120754096E-01   0.1092963501E-01  -0.1707917344E-03   0.2442933740E-01
  -0.1791528649E+01   0.1381329628E+01   0.8017575353E+00  -0.7646748508E-02   0.1247128750E-01   0.1757523264E-02   0.0000000000E+00   0.0000000000E+00   0.0000000000E+00  -0.7576594293E-01  -0.1166041381E+01  -0.2964653880E-01   0.1989726222E-01   0.4138442883E-02   0.1036511778E-01
  -0.2008751406E+01   0.1387799123E+01   0.8016641865E+00  -0.8751406217E-02   0.1341197256E-01   0.1664174508E-02   0.0000000000E+00   0.0000000000E+00   0.0000000000E+00  -0.7802870355E-01  -0.1183434187E+01  -0.2513103061E-01   0.2377999646E-02   0.1090295513E-02   0.1774980979E-01
  -0.1791980806E+01   0.1581893858E+01   0.8017297307E+00  -0.6748855532E-02   0.1024883826E-01   0.1729718727E-02   0.0000000000E+00   0.0000000000E+00   0.0000000000E+00  -0.1262447254E+00  -0.1167385182E+01  -0.4551750373E-01   0.1885568395E-01   0.3119059080E-02   0.6185307510E-02
  -0.2007762581E+01   0.1587717961E+01   0.8016725166E+00  -0.7762581056E-02   0.1114363116E-01   0.1672504649E-02   0.0000000000E+00   0.0000000000E+00   0.0000000000E+00  -0.1112446440E+00  -0.1174830940E+01  -0.1917175129E-01   0.1668481185E-02   0.2592246875E-02   0.1308494073E-01
  -0.1792931049E+01   0.1783175499E+01   0.8016815135E+00  -0.5882588962E-02   0.8099349119E-02   0.1681501475E-02   0.0000000000E+00   0.0000000000E+00   0.0000000000E+00  -0.1680317250E+00  -0.1149492426E+01  -0.6087760903E-01   0.2757781053E-01   0.4205277946E-03   0.1357392534E-02
  -0.2006800857E+01   0.1788252439E+01   0.8016606275E+00  -0.6800856568E-02   0.8929339313E-02   0.1660615526E-02   0.0000000000E+00   0.0000000000E+00   0.0000000000E+00  -0.1548187436E+00  -0.1165485258E+01  -0.3181876688E-01   0.9572408235E-02   0.2058387654E-02   0.9184691361E-02
  -0.1794103823E+01   0.1984906011E+01   0.8016018990E+00  -0.5017482601E-02   0.6060651388E-02   0.1601887029E-02   0.0000000000E+00   0.0000000000E+00   0.0000000000E+00  -0.1501406156E+00  -0.1055687170E+01  -0.2531284422E-01   0.4472812805E-01  -0.4496247279E-02  -0.5298118875E-02
  -0.2005832767E+01   0.1989177298E+01   0.8016250386E+00  -0.5832767034E-02   0.6805608080E-02   0.1625026643E-02   0.0000000000E+00   0.0000000000E+00   0.0000000000E+00  -0.1590300008E+00  -0.1102054073E+01  -0.1225759683E-01   0.2574566184E-01  -0.2601190329E-02   0.4595539845E-02
  -0.1795338731E+01   0.2186971786E+01   0.8014740307E+00  -0.4128321281E-02   0.4183416289E-02   0.1474018733E-02   0.0000000000E+00   0.0000000000E+00   0.0000000000E+00  -0.2237858048E+00  -0.1030700163E+01  -0.9170828563E-01   0.6968749073E-01  -0.1186652147E-01  -0.1530228866E-01
  -0.2004828498E+01   0.2190394002E+01   0.8015540545E+00  -0.4828497937E-02   0.4816371865E-02   0.1554042474E-02   0.0000000000E+00   0.0000000000E+00   0.0000000000E+00  -0.3673213815E+00  -0.1222920198E+01  -0.2042364640E+00   0.5155871815E-01  -0.1316240687E-01  -0.2930237797E-02
  -0.1796486921E+01   0.2389379753E+01   0.8012758857E+00  -0.3193921052E-02   0.2536312783E-02   0.1275873695E-02   0.0000000000E+00   0.0000000000E+00   0.0000000000E+00   0.2437099780E+00  -0.4298868908E+00   0.3706054930E+00   0.1010229884E+00  -0.2075289378E-01  -0.3028187184E-01
  -0.2003760047E+01   0.2391916290E+01   0.8014232313E+00  -0.3760046611E-02   0.3021970419E-02   0.1423219280E-02   0.0000000000E+00   0.0000000000E+00   0.0000000000E+00   0.1085515637E+00  -0.6260016353E+00   0.2781244067E+00   0.8884976601E-01  -0.2973445365E-01  -0.1765851672E-01
  -0.1797311986E+01   0.2592234824E+01   0.8009783746E+00  -0.2194605850E-02   0.1210903907E-02   0.9783625938E-03   0.0000000000E+00   0.0000000000E+00   0.0000000000E+00  -0.1082776547E+01  -0.1587659412E+01  -0.9773779368E+00   0.1384101800E+00  -0.2823919454E-01  -0.5185657748E-01
  -0.2002601747E+01   0.2593862969E+01   0.8011850319E+00  -0.2601746684E-02   0.1512959013E-02   0.1185019931E-02   0.0000000000E+00   0.0000000000E+00   0.0000000000E+00  -0.2037657028E+01  -0.2615423773E+01  -0.1879292117E+01   0.1393173393E+00  -0.4814565827E-01  -0.4269664997E-01
  -0.1797500251E+01   0.2795713522E+01   0.8005504396E+00  -0.1113770945E-02   0.3226824433E-03   0.5504275512E-03   0.0000000000E+00   0.0000000000E+00   0.0000000000E+00   0.4464198833E+01   0.4205902906E+01   0.4526650025E+01   0.1701100045E+00  -0.2544755757E-01  -0.7885082804E-01
  -0.2001335202E+01   0.2796452574E+01   0.8007510272E+00  -0.1335202132E-02   0.4308743057E-03   0.7510151710E-03   0.0000000000E+00   0.0000000000E+00   0.0000000000E+00   0.5751171550E+01   0.5437671241E+01   0.5861711679E+01   0.1926202865E+00  -0.5118504125E-01  -0.9594679879E-01
  -0.1797227740E+01   0.3000000000E+01   0.8000000120E+00   0.0000000000E+00   0.0000000000E+00   0.0000000000E+00   0.0000000000E+00   0.0000000000E+00   0.0000000000E+00  -0.1601340745E+02  -0.1607767416E+02  -0.1601344971E+02   0.1822049220E+00  -0.2460448625E-04  -0.9378357643E-01
  -0.2000000000E+01   0.3000000000E+01   0.8000000120E+00   0.0000000000E+00   0.0000000000E+00   0.0000000000E+00   0.0000000000E+00   0.0000000000E+00   0.0000000000E+00  -0.2298344972E+02  -0.2307568316E+02  -0.2298350730E+02   0.2202702047E+00  -0.6459922098E-04  -0.1346526069E+00
  -0.1578732525E+01   0.9737446570E+00   0.8019569494E+00  -0.8422885092E-02   0.1642682803E-01   0.1956937354E-02   0.0000000000E+00   0.0000000000E+00   0.0000000000E+00   0.5236892156E-01  -0.1128987603E+01   0.1739336445E-01   0.7654702586E-01   0.8237934007E-02   0.2085308260E-01
  -0.1575426489E+01   0.1171665975E+01   0.8019157011E+00  -0.7448939031E-02   0.1411754479E-01   0.1915689113E-02   0.0000000000E+00   0.0000000000E+00   0.0000000000E+00  -0.4114605526E-01  -0.1169334055E+01  -0.2803652012E-01   0.5249818947E-01   0.7642922344E-02   0.1296136993E-01
  -0.1575264962E+01   0.1371857676E+01   0.8018594024E+00  -0.6575142268E-02   0.1185718626E-01   0.1859390386E-02   0.0000000000E+00   0.0000000000E+00   0.0000000000E+00  -0.8600584403E-01  -0.1159281694E+01  -0.3570666188E-01   0.4317119284E-01   0.7160053719E-02   0.7404824336E-02
  -0.1576979835E+01   0.1573461989E+01   0.8017873828E+00  -0.5769924835E-02   0.9671309463E-02   0.1787370761E-02   0.0000000000E+00   0.0000000000E+00   0.0000000000E+00  -0.1160464827E+00  -0.1127967574E+01  -0.3672326249E-01   0.4170222306E-01   0.5149095956E-02   0.2113078156E-02
  -0.1579694518E+01   0.1775914779E+01   0.8016949304E+00  -0.5000357964E-02   0.7587899126E-02   0.1694918358E-02   0.0000000000E+00   0.0000000000E+00   0.0000000000E+00  -0.1345673921E+00  -0.1076028824E+01  -0.3465360891E-01   0.4979870952E-01   0.2025162066E-02  -0.3096655137E-02
  -0.1582889236E+01   0.1978893489E+01   0.8015751168E+00  -0.4239236380E-02   0.5640958927E-02   0.1575104843E-02   0.0000000000E+00   0.0000000000E+00   0.0000000000E+00  -0.1050620192E+00  -0.9619608570E+00   0.7612330191E-02   0.6527274753E-01  -0.1603954255E-02  -0.9426250267E-02
  -0.1586253582E+01   0.2182249339E+01   0.8014158676E+00  -0.3465112247E-02   0.3873859171E-02   0.1415855622E-02   0.0000000000E+00   0.0000000000E+00   0.0000000000E+00  -0.1800371628E+00  -0.9335157077E+00  -0.6326096736E-01   0.8596190957E-01  -0.5222169315E-02  -0.1785129040E-01
  -0.1589489010E+01   0.2385955979E+01   0.8012032937E+00  -0.2662799523E-02   0.2342869361E-02   0.1203281724E-02   0.0000000000E+00   0.0000000000E+00   0.0000000000E+00   0.2258804708E+00  -0.3957850152E+00   0.3377260492E+00   0.1085609314E+00  -0.7856776296E-02  -0.2998600525E-01
  -0.1592131290E+01   0.2590079592E+01   0.8009160677E+00  -0.1816900346E-02   0.1120851940E-02   0.9160557190E-03   0.0000000000E+00   0.0000000000E+00   0.0000000000E+00  -0.1084733831E+01  -0.1547633191E+01  -0.9897023406E+00   0.1321146541E+00  -0.8636288204E-02  -0.4656186196E-01
  -0.1593619581E+01   0.2794730115E+01   0.8005258642E+00  -0.9131408785E-03   0.3012845575E-03   0.5258521520E-03   0.0000000000E+00   0.0000000000E+00   0.0000000000E+00   0.4127068807E+01   0.3890926597E+01   0.4188438184E+01   0.1464036729E+00  -0.5461234195E-02  -0.7271188677E-01
  -0.1594253180E+01   0.3000000000E+01   0.8000000120E+00   0.0000000000E+00   0.0000000000E+00   0.0000000000E+00   0.0000000000E+00   0.0000000000E+00   0.0000000000E+00  -0.1506880378E+02  -0.1512924333E+02  -0.1506882550E+02   0.1480293245E+00  -0.1719754308E-04  -0.9021559772E-01
  -0.1365027929E+01   0.9623681513E+00   0.8021142467E+00  -0.7192758732E-02   0.1594116335E-01   0.2114234708E-02   0.0000000000E+00   0.0000000000E+00   0.0000000000E+00   0.2538696884E-01  -0.1156274598E+01   0.6925428280E-02   0.5148175863E-01   0.1094409755E-01   0.2561960761E-01
  -0.1360826319E+01   0.1161491887E+01   0.8020442381E+00  -0.6313748904E-02   0.1360870733E-01   0.2044226058E-02   0.0000000000E+00   0.0000000000E+00   0.0000000000E+00  -0.7167673506E-01  -0.1190513304E+01  -0.4499351836E-01   0.3452876202E-01   0.8565511719E-02   0.1221167657E-01
  -0.1361059613E+01   0.1362859930E+01   0.8019563593E+00  -0.5536743214E-02   0.1135441024E-01   0.1956347315E-02   0.0000000000E+00   0.0000000000E+00   0.0000000000E+00  -0.1218248698E+00  -0.1174351175E+01  -0.6031836769E-01   0.2724482822E-01   0.8512796101E-02   0.6531016056E-02
  -0.1363910551E+01   0.1565613948E+01   0.8018505814E+00  -0.4829880767E-02   0.9202087541E-02   0.1850569378E-02   0.0000000000E+00   0.0000000000E+00   0.0000000000E+00  -0.1514192558E+00  -0.1132727771E+01  -0.6444087522E-01   0.2712526188E-01   0.6749098714E-02  -0.1264579726E-03
  -0.1368174656E+01   0.1769230759E+01   0.8017251181E+00  -0.4160506371E-02   0.7176078560E-02   0.1725106066E-02   0.0000000000E+00   0.0000000000E+00   0.0000000000E+00  -0.1668718419E+00  -0.1069525195E+01  -0.6297066011E-01   0.3451676750E-01   0.4229314917E-02  -0.5654465853E-02
  -0.1373135689E+01   0.1973399188E+01   0.8015772617E+00  -0.3505108991E-02   0.5305078256E-02   0.1577249723E-02   0.0000000000E+00   0.0000000000E+00   0.0000000000E+00  -0.1358634353E+00  -0.9483069901E+00  -0.2203991341E-01   0.4765332626E-01   0.1352419584E-02  -0.1190189867E-01
  -0.1378346726E+01   0.2177963537E+01   0.8013969531E+00  -0.2844975965E-02   0.3624957165E-02   0.1396941102E-02   0.0000000000E+00   0.0000000000E+00   0.0000000000E+00  -0.1930792210E+00  -0.9002047771E+00  -0.7721997190E-01   0.6451350041E-01  -0.1765869079E-02  -0.1968771418E-01
  -0.1383348402E+01   0.2382880591E+01   0.8011734912E+00  -0.2170741621E-02   0.2182391091E-02   0.1173479193E-02   0.0000000000E+00   0.0000000000E+00   0.0000000000E+00   0.1990794815E+00  -0.3790575418E+00   0.3093039247E+00   0.8253842687E-01  -0.4763028736E-02  -0.3060760898E-01
  -0.1387481538E+01   0.2588177855E+01   0.8008860130E+00  -0.1470537903E-02   0.1039204884E-02   0.8860010306E-03   0.0000000000E+00   0.0000000000E+00   0.0000000000E+00  -0.9593587232E+00  -0.1386295312E+01  -0.8656326844E+00   0.1022147794E+00  -0.7450888192E-02  -0.4568939182E-01
  -0.1390042528E+01   0.2793888544E+01   0.8005060973E+00  -0.7332381223E-03   0.2774943109E-03   0.5060852959E-03   0.0000000000E+00   0.0000000000E+00   0.0000000000E+00   0.3853757629E+01   0.3638333114E+01   0.3915151219E+01   0.1152876034E+00  -0.7482902314E-02  -0.6994224110E-01
  -0.1391371730E+01   0.3000000000E+01   0.8000000120E+00   0.0000000000E+00   0.0000000000E+00   0.0000000000E+00   0.0000000000E+00   0.0000000000E+00   0.0000000000E+00  -0.1373412482E+02  -0.1378919053E+02  -0.1373413436E+02   0.1179836160E+00  -0.1264901516E-04  -0.8635763304E-01
  -0.1153304797E+01   0.9542658596E+00   0.8022744291E+00  -0.5981426874E-02   0.1534053360E-01   0.2274417058E-02   0.0000000000E+00   0.0000000000E+00   0.0000000000E+00  -0.2798895275E-01  -0.1200909795E+01  -0.1534647022E-01   0.1174688224E-01   0.2643362204E-01   0.3114916509E-01
  -0.1149402169E+01   0.1156020484E+01   0.8021576288E+00  -0.5203749229E-02   0.1297410355E-01   0.2157616829E-02   0.0000000000E+00   0.0000000000E+00   0.0000000000E+00  -0.6931341408E-01  -0.1171253170E+01  -0.2257164786E-01  -0.2892394552E-02   0.1720331443E-01   0.9086251521E-02
  -0.1150531642E+01   0.1358809004E+01   0.8020345243E+00  -0.4534122138E-02   0.1073361362E-01   0.2034512294E-02   0.0000000000E+00   0.0000000000E+00   0.0000000000E+00  -0.1476337152E+00  -0.1172661414E+01  -0.7044891190E-01  -0.1284427956E-01   0.1098821940E-01   0.5465882058E-02
  -0.1154473565E+01   0.1562381502E+01   0.8018896571E+00  -0.3931664574E-02   0.8632182002E-02   0.1889645090E-02   0.0000000000E+00   0.0000000000E+00   0.0000000000E+00  -0.1718014033E+00  -0.1116089230E+01  -0.7550783927E-01  -0.9334461890E-02   0.3799498085E-02  -0.3425732165E-02
  -0.1159944815E+01   0.1766601921E+01   0.8017296576E+00  -0.3365914918E-02   0.6685140726E-02   0.1729645625E-02   0.0000000000E+00   0.0000000000E+00   0.0000000000E+00  -0.1808687008E+00  -0.1038349373E+01  -0.7276976027E-01   0.2190029971E-02  -0.1627038904E-02  -0.8538960850E-02
  -0.1166184553E+01   0.1971313206E+01   0.8015550177E+00  -0.2817643132E-02   0.4912346070E-02   0.1555005731E-02   0.0000000000E+00   0.0000000000E+00   0.0000000000E+00  -0.1419474982E+00  -0.9037946707E+00  -0.2748315197E-01   0.1996326413E-01  -0.5260771044E-02  -0.1446583844E-01
  -0.1172662716E+01   0.2176404780E+01   0.8013565628E+00  -0.2269725969E-02   0.3339829715E-02   0.1356550794E-02   0.0000000000E+00   0.0000000000E+00   0.0000000000E+00  -0.1818654265E+00  -0.8372042460E+00  -0.6781696511E-01   0.4025863582E-01  -0.7551292654E-02  -0.2124640136E-01
  -0.1178818308E+01   0.2381836146E+01   0.8011265095E+00  -0.1719078009E-02   0.2002926002E-02   0.1126497483E-02   0.0000000000E+00   0.0000000000E+00   0.0000000000E+00   0.1864155171E+00  -0.3438494967E+00   0.2941381930E+00   0.5980869605E-01  -0.8533698638E-02  -0.3067044662E-01
  -0.1183920747E+01   0.2587604374E+01   0.8008441505E+00  -0.1156457424E-02   0.9511441462E-03   0.8441385207E-03   0.0000000000E+00   0.0000000000E+00   0.0000000000E+00  -0.8648964793E+00  -0.1253269652E+01  -0.7731284422E+00   0.7872487163E-01  -0.8464634261E-02  -0.4386876970E-01
  -0.1187236430E+01   0.2793688818E+01   0.8004816560E+00  -0.5736402660E-03   0.2534783025E-03   0.4816440403E-03   0.0000000000E+00   0.0000000000E+00   0.0000000000E+00   0.3558781147E+01   0.3364344838E+01   0.3619770073E+01   0.9008869645E-01  -0.6191477915E-02  -0.6637500731E-01
  -0.1189031000E+01   0.3000000000E+01   0.8000000120E+00   0.0000000000E+00   0.0000000000E+00   0.0000000000E+00   0.0000000000E+00   0.0000000000E+00   0.0000000000E+00  -0.1252327487E+02  -0.1257349014E+02  -0.1252328574E+02   0.9201355016E-01   0.7256185129E-05  -0.8215961707E-01
  -0.9422500630E+00   0.9532774251E+00   0.8023981582E+00  -0.4800965049E-02   0.1428772611E-01   0.2398146166E-02   0.0000000000E+00   0.0000000000E+00   0.0000000000E+00  -0.3038600914E+00  -0.1443487662E+01  -0.2492162975E+00  -0.1648660475E+00  -0.8903266541E-02   0.3166768588E-01
  -0.9418656895E+00   0.1159522125E+01   0.8021934660E+00  -0.4125244464E-02   0.1191885496E-01   0.2193453981E-02   0.0000000000E+00   0.0000000000E+00   0.0000000000E+00  -0.2786405368E+00  -0.1349080686E+01  -0.2192830558E+00  -0.1271598034E+00  -0.2229867186E-01   0.1713979332E-02
  -0.9450453776E+00   0.1363456309E+01   0.8020147764E+00  -0.3577019607E-02   0.9759729380E-02   0.2014764359E-02   0.0000000000E+00   0.0000000000E+00   0.0000000000E+00  -0.3110634622E+00  -0.1287693893E+01  -0.2308746979E+00  -0.1109994473E+00  -0.2523500022E-01   0.1353193154E-02
  -0.9501014790E+00   0.1566919077E+01   0.8018251650E+00  -0.3083391964E-02   0.7789127300E-02   0.1825153004E-02   0.0000000000E+00   0.0000000000E+00   0.0000000000E+00  -0.2546700209E+00  -0.1139023166E+01  -0.1645498807E+00  -0.7760315999E-01  -0.2504939532E-01  -0.7688518806E-02
  -0.9562852797E+00   0.1770653133E+01   0.8016399589E+00  -0.2623539736E-02   0.5998492631E-02   0.1639946919E-02   0.0000000000E+00   0.0000000000E+00   0.0000000000E+00  -0.2154562598E+00  -0.1006099471E+01  -0.1178293111E+00  -0.4696399188E-01  -0.2271378207E-01  -0.1023880785E-01
  -0.9630769453E+00   0.1974774402E+01   0.8014558197E+00  -0.2182241281E-02   0.4390281820E-02   0.1455807668E-02   0.0000000000E+00   0.0000000000E+00   0.0000000000E+00  -0.1511577710E+00  -0.8446498778E+00  -0.4822423658E-01  -0.1555892441E-01  -0.1953341857E-01  -0.1480257486E-01
  -0.9699909543E+00   0.2179231037E+01   0.8012587219E+00  -0.1743064329E-02   0.2977007328E-02   0.1258709943E-02   0.0000000000E+00   0.0000000000E+00   0.0000000000E+00  -0.1691302384E+00  -0.7599282127E+00  -0.6614119510E-01   0.1239703616E-01  -0.1638596669E-01  -0.2024647557E-01
  -0.9764967523E+00   0.2383992937E+01   0.8010402520E+00  -0.1310106319E-02   0.1782447486E-02   0.1040240029E-02   0.0000000000E+00   0.0000000000E+00   0.0000000000E+00   0.1673497336E+00  -0.3071555800E+00   0.2659999625E+00   0.3534903586E-01  -0.1333132385E-01  -0.2840909360E-01
  -0.9819358820E+00   0.2589058623E+01   0.8007774287E+00  -0.8754370406E-03   0.8456534763E-03   0.7774167241E-03   0.0000000000E+00   0.0000000000E+00   0.0000000000E+00  -0.7610333538E+00  -0.1106769584E+01  -0.6758752464E+00   0.5485376151E-01  -0.1064842530E-01  -0.4049015013E-01
  -0.9856387629E+00   0.2794419309E+01   0.8004430270E+00  -0.4334108688E-03   0.2250886373E-03   0.4430149665E-03   0.0000000000E+00   0.0000000000E+00   0.0000000000E+00   0.3203418556E+01   0.3031259383E+01   0.3260740692E+01   0.6668840718E-01  -0.7250594898E-02  -0.6122924120E-01
  -0.9877309200E+00   0.3000000000E+01   0.8000000120E+00   0.0000000000E+00   0.0000000000E+00   0.0000000000E+00   0.0000000000E+00   0.0000000000E+00   0.0000000000E+00  -0.1114583798E+02  -0.1119051833E+02  -0.1114584180E+02   0.6976108823E-01   0.1044858536E-04  -0.7581738350E-01
  -0.7272702342E+00   0.9607634322E+00   0.8020175683E+00  -0.3642071205E-02   0.1201931418E-01   0.2017556305E-02   0.0000000000E+00   0.0000000000E+00   0.0000000000E+00   0.2135105927E+00  -0.8178288303E+00   0.1888707136E+00  -0.2745780905E+00  -0.8280109152E-01   0.1807151828E-01
  -0.7353575675E+00   0.1170391935E+01   0.8018230807E+00  -0.3091081454E-02   0.1005639486E-01   0.1823068700E-02   0.0000000000E+00   0.0000000000E+00   0.0000000000E+00   0.1977877375E+00  -0.7265170667E+00   0.1975264152E+00  -0.1937375613E+00  -0.5965858687E-01   0.9890797776E-02
  -0.7416373675E+00   0.1373376267E+01   0.8016797251E+00  -0.2679604477E-02   0.8280886719E-02   0.1679713072E-02   0.0000000000E+00   0.0000000000E+00   0.0000000000E+00   0.1427494529E+00  -0.7033382373E+00   0.1652606612E+00  -0.1565721234E+00  -0.4898449077E-01   0.8141020260E-02
  -0.7478684820E+00   0.1575451104E+01   0.8015430730E+00  -0.2299431951E-02   0.6648034419E-02   0.1543061024E-02   0.0000000000E+00   0.0000000000E+00   0.0000000000E+00   0.8959800694E-01  -0.6741231205E+00   0.1345880334E+00  -0.1047688601E+00  -0.3847702393E-01   0.1673695492E-02
  -0.7546074177E+00   0.1777963153E+01   0.8014091687E+00  -0.1946010726E-02   0.5146253422E-02   0.1409156722E-02   0.0000000000E+00   0.0000000000E+00   0.0000000000E+00   0.4233331326E-01  -0.6430886958E+00   0.1049172219E+00  -0.6624367226E-01  -0.3031040323E-01  -0.2297315475E-02
  -0.7617254076E+00   0.1980903863E+01   0.8012701233E+00  -0.1609426566E-02   0.3782633139E-02   0.1270111275E-02   0.0000000000E+00   0.0000000000E+00   0.0000000000E+00   0.3247086356E-01  -0.5698455599E+00   0.1095880613E+00  -0.3041029280E-01  -0.2348706154E-01  -0.8070387782E-02
  -0.7688317471E+00   0.2184104229E+01   0.8011109534E+00  -0.1273292068E-02   0.2574228582E-02   0.1110941417E-02   0.0000000000E+00   0.0000000000E+00   0.0000000000E+00  -0.2588111388E-01  -0.5401201715E+00   0.5814268125E-01  -0.1580493334E-02  -0.1788216700E-01  -0.1463194345E-01
  -0.7755505677E+00   0.2387536936E+01   0.8009267596E+00  -0.9498827222E-03   0.1545835834E-02   0.9267475915E-03   0.0000000000E+00   0.0000000000E+00   0.0000000000E+00   0.2416600822E+00  -0.1718668259E+00   0.3268910018E+00   0.2009588857E-01  -0.1335398467E-01  -0.2338028068E-01
  -0.7813754065E+00   0.2591246067E+01   0.8006961779E+00  -0.6310925425E-03   0.7352171090E-03   0.6961659338E-03   0.0000000000E+00   0.0000000000E+00   0.0000000000E+00  -0.5891648351E+00  -0.8907971995E+00  -0.5132928338E+00   0.3727804425E-01  -0.9714768660E-02  -0.3564655594E-01
  -0.7856808084E+00   0.2795325331E+01   0.8003972045E+00  -0.3135583825E-03   0.1960313311E-03   0.3971925158E-03   0.0000000000E+00   0.0000000000E+00   0.0000000000E+00   0.2914032951E+01   0.2763937153E+01   0.2965773305E+01   0.4756094002E-01  -0.6165049755E-02  -0.5498356080E-01
  -0.7878651620E+00   0.3000000000E+01   0.8000000120E+00   0.0000000000E+00   0.0000000000E+00   0.0000000000E+00   0.0000000000E+00   0.0000000000E+00   0.0000000000E+00  -0.9755663500E+01  -0.9794756724E+01  -0.9755659688E+01   0.5076238155E-01   0.3297648424E-04  -0.6825999662E-01
  -0.5875860823E+00   0.2798725541E+01   0.8003524609E+00  -0.2066262820E-03   0.1694514026E-03   0.3524488756E-03   0.0000000000E+00   0.0000000000E+00   0.0000000000E+00   0.2596115758E+01   0.2463933096E+01   0.2640462767E+01   0.3139918290E-01  -0.4622461314E-02  -0.4991284568E-01
  -0.5894951220E+00   0.3000000000E+01   0.8000000120E+00   0.0000000000E+00   0.0000000000E+00   0.0000000000E+00   0.0000000000E+00   0.0000000000E+00   0.0000000000E+00  -0.8614069264E+01  -0.8648580514E+01  -0.8614062236E+01   0.3400110502E-01   0.5700905653E-04  -0.6156254075E-01
  -0.3904122047E+00   0.2802247316E+01   0.8003120153E+00  -0.1113946813E-03   0.1473756220E-03   0.3120032662E-03   0.0000000000E+00   0.0000000000E+00   0.0000000000E+00   0.2369071303E+01   0.2251272683E+01   0.2406386178E+01   0.1658209947E-01  -0.4064358464E-02  -0.4516281807E-01
  -0.3923090400E+00   0.3000000000E+01   0.8000000120E+00   0.0000000000E+00   0.0000000000E+00   0.0000000000E+00   0.0000000000E+00   0.0000000000E+00   0.0000000000E+00  -0.7636801627E+01  -0.7667459579E+01  -0.7636826339E+01   0.1851054576E-01   0.2677956213E-04  -0.5541815917E-01
  -0.1899377761E+00   0.2803746250E+01   0.8002795930E+00  -0.2420506795E-04   0.1311599516E-03   0.2795809791E-03   0.0000000000E+00   0.0000000000E+00   0.0000000000E+00   0.2189234138E+01   0.2082392508E+01   0.2220926951E+01   0.3469174084E-02  -0.2562966146E-02  -0.4108411697E-01
  -0.1922578220E+00   0.3000000000E+01   0.8000000120E+00   0.0000000000E+00   0.0000000000E+00   0.0000000000E+00   0.0000000000E+00   0.0000000000E+00   0.0000000000E+00  -0.6849838309E+01  -0.6877239100E+01  -0.6849811625E+01   0.3580451115E-02   0.8805821682E-05  -0.4984853995E-01
   0.1406823087E-01   0.2803278459E+01   0.8002680000E+00   0.5973086750E-04   0.1258993071E-03   0.2679879609E-03   0.0000000000E+00   0.0000000000E+00   0.0000000000E+00   0.2120333046E+01   0.2017617351E+01   0.2149924939E+01  -0.8043572768E-02   0.1311252035E-02  -0.3925641357E-01
   0.1392890100E-01   0.3000000000E+01   0.8000000120E+00   0.0000000000E+00   0.0000000000E+00   0.0000000000E+00   0.0000000000E+00   0.0000000000E+00   0.0000000000E+00  -0.6559565046E+01  -0.6585776776E+01  -0.6559525567E+01  -0.1105449842E-01  -0.1974362652E-04  -0.4768802664E-01
  -0.5840059571E+00   0.2597896083E+01   0.8006180109E+00  -0.4163440661E-03   0.6332234597E-03   0.6179988792E-03   0.0000000000E+00   0.0000000000E+00   0.0000000000E+00  -0.5190925135E+00  -0.7822702379E+00  -0.4537507434E+00   0.2388344430E-01  -0.7725907316E-02  -0.3254761280E-01
  -0.3876275661E+00   0.2604525133E+01   0.8005469645E+00  -0.2299791007E-03   0.5486427102E-03   0.5469525281E-03   0.0000000000E+00   0.0000000000E+00   0.0000000000E+00  -0.4041495639E+00  -0.6352311805E+00  -0.3486988776E+00   0.1120669064E-01  -0.6857478040E-02  -0.2897635328E-01
  -0.1879783473E+00   0.2607229369E+01   0.8004925432E+00  -0.6367725025E-04   0.4893694149E-03   0.4925311591E-03   0.0000000000E+00   0.0000000000E+00   0.0000000000E+00  -0.3207097773E+00  -0.5287844833E+00  -0.2731433808E+00   0.1742664566E-02  -0.4406164785E-02  -0.2595806633E-01
   0.1468034747E-01   0.2606435964E+01   0.8004715823E+00   0.9411147256E-04   0.4696342122E-03   0.4715703088E-03   0.0000000000E+00   0.0000000000E+00   0.0000000000E+00  -0.2847646871E+00  -0.4849231899E+00  -0.2410606986E+00  -0.3829116952E-02   0.1330644980E-02  -0.2484997782E-01
  -0.5792577816E+00   0.2397353364E+01   0.8008178339E+00  -0.6346055560E-03   0.1326273702E-02   0.8178219316E-03   0.0000000000E+00   0.0000000000E+00   0.0000000000E+00   0.2118118559E+00  -0.1471410489E+00   0.2830722983E+00   0.1050193528E-01  -0.1159175327E-01  -0.2119755017E-01
  -0.3841954391E+00   0.2406911042E+01   0.8007147867E+00  -0.3617620611E-03   0.1142411717E-02   0.7147746832E-03   0.0000000000E+00   0.0000000000E+00   0.0000000000E+00   0.2579441665E+00  -0.5411882125E-01   0.3152459510E+00   0.7414997813E-03  -0.1074656934E-01  -0.1771515486E-01
  -0.1858114374E+00   0.2410734863E+01   0.8006375853E+00  -0.1190824269E-03   0.1016353022E-02   0.6375732711E-03   0.0000000000E+00   0.0000000000E+00   0.0000000000E+00   0.2868946024E+00   0.8000800856E-02   0.3333919858E+00  -0.3329425315E-02  -0.6450388880E-02  -0.1478006489E-01
   0.1565158293E-01   0.2409778085E+01   0.8006092100E+00   0.1109499301E-03   0.9748646101E-03   0.6091980282E-03   0.0000000000E+00   0.0000000000E+00   0.0000000000E+00   0.2986643819E+00   0.3038031629E-01   0.3399673042E+00  -0.9559401738E-03   0.1667782524E-02  -0.1398017590E-01
  -0.5737959245E+00   0.2197019054E+01   0.8009704924E+00  -0.8618935129E-03   0.2200084443E-02   0.9704803881E-03   0.0000000000E+00   0.0000000000E+00   0.0000000000E+00  -0.3190886122E-01  -0.4764319704E+00   0.3399548586E-01  -0.7308766794E-02  -0.1628438168E-01  -0.1329216090E-01
  -0.3803148662E+00   0.2209416800E+01   0.8008313477E+00  -0.5052782494E-03   0.1881290296E-02   0.8313356822E-03   0.0000000000E+00   0.0000000000E+00   0.0000000000E+00   0.6210731510E-01  -0.3202167142E+00   0.1088777769E+00  -0.1344943132E-01  -0.1557965738E-01  -0.9374101983E-02
  -0.1840100315E+00   0.2215784828E+01   0.8007293288E+00  -0.1883984607E-03   0.1661098141E-02   0.7293168397E-03   0.0000000000E+00   0.0000000000E+00   0.0000000000E+00   0.1163712121E+00  -0.2227264347E+00   0.1488214729E+00  -0.9958957874E-02  -0.8711601421E-02  -0.5640834353E-02
   0.1677766703E-01   0.2213334080E+01   0.8006939804E+00   0.1125810311E-03   0.1595970435E-02   0.6939684031E-03   0.0000000000E+00   0.0000000000E+00   0.0000000000E+00   0.1428373256E+00  -0.1828083101E+00   0.1688581741E+00   0.2457704272E-02   0.2021293959E-02  -0.5384683843E-02
  -0.5679797877E+00   0.1996853818E+01   0.8010949130E+00  -0.1107786711E-02   0.3218877700E-02   0.1094901025E-02   0.0000000000E+00   0.0000000000E+00   0.0000000000E+00   0.8876938118E-02  -0.5098612820E+00   0.6241589289E-01  -0.3264504830E-01  -0.2218611426E-01  -0.7747926501E-02
  -0.3767845125E+00   0.2013470001E+01   0.8009091157E+00  -0.6701444939E-03   0.2723040523E-02   0.9091037111E-03   0.0000000000E+00   0.0000000000E+00   0.0000000000E+00   0.1360241394E+00  -0.3056875243E+00   0.1617862468E+00  -0.3459942113E-01  -0.2301185322E-01  -0.3849334125E-02
  -0.1851675741E+00   0.2026934294E+01   0.8007723883E+00  -0.2803141100E-03   0.2371224403E-02   0.7723763282E-03   0.0000000000E+00   0.0000000000E+00   0.0000000000E+00   0.2156689741E+00  -0.1730777731E+00   0.2206269317E+00  -0.1993353599E-01  -0.1168822046E-01   0.2946866050E-03
   0.1736548444E-01   0.2018545387E+01   0.8007320737E+00   0.9741943603E-04   0.2290957475E-02   0.7320617091E-03   0.0000000000E+00   0.0000000000E+00   0.0000000000E+00   0.2315841910E+00  -0.1399735388E+00   0.2296912989E+00   0.5924988248E-02   0.2923382819E-02   0.2307748457E-03
  -0.5620671317E+00   0.1796908538E+01   0.8011956576E+00  -0.1352767739E-02   0.4358807538E-02   0.1195645585E-02   0.0000000000E+00   0.0000000000E+00   0.0000000000E+00  -0.4696013613E-02  -0.5923910293E+00   0.2825071625E-01  -0.6559356162E-01  -0.2885513249E-01  -0.3169392400E-02
  -0.3727604693E+00   0.1817008342E+01   0.8009574315E+00  -0.8347873410E-03   0.3647652400E-02   0.9574194984E-03   0.0000000000E+00   0.0000000000E+00   0.0000000000E+00   0.1626935996E+00  -0.3300251606E+00   0.1590806716E+00  -0.6442989093E-01  -0.3093218723E-01   0.6265720303E-03
  -0.1832074569E+00   0.1833440473E+01   0.8007883668E+00  -0.3753648617E-03   0.3150872905E-02   0.7883548137E-03   0.0000000000E+00   0.0000000000E+00   0.0000000000E+00   0.2578362914E+00  -0.1689292732E+00   0.2293865541E+00  -0.3431869207E-01  -0.1442907172E-01   0.3406376415E-02
   0.1831385226E-01   0.1823382895E+01   0.8007394424E+00   0.6925025822E-04   0.3035224928E-02   0.7394304283E-03   0.0000000000E+00   0.0000000000E+00   0.0000000000E+00   0.2693938588E+00  -0.1364541223E+00   0.2327401953E+00   0.8619199414E-02   0.3003578301E-02   0.3877000562E-02
  -0.5562065451E+00   0.1597447886E+01   0.8012813785E+00  -0.1612624137E-02   0.5598205720E-02   0.1281366486E-02   0.0000000000E+00   0.0000000000E+00   0.0000000000E+00   0.7499060263E-02  -0.6426961313E+00   0.1475319675E-01  -0.1022212355E+00  -0.3748597963E-01   0.6847119013E-03
  -0.3684370448E+00   0.1620746409E+01   0.8009762955E+00  -0.1011990827E-02   0.4624639477E-02   0.9762835016E-03   0.0000000000E+00   0.0000000000E+00   0.0000000000E+00   0.2335498043E+00  -0.3015234464E+00   0.1918579292E+00  -0.9854836800E-01  -0.4056667150E-01   0.3517566665E-02
  -0.1807902965E+00   0.1639529040E+01   0.8007712172E+00  -0.4812984844E-03   0.3959350171E-02   0.7712052261E-03   0.0000000000E+00   0.0000000000E+00   0.0000000000E+00   0.3295854222E+00  -0.1277454837E+00   0.2573470071E+00  -0.4861730009E-01  -0.1701006921E-01   0.7247704290E-02
   0.1931898831E-01   0.1628625911E+01   0.8007149918E+00   0.3240430816E-04   0.3799241291E-02   0.7149798109E-03   0.0000000000E+00   0.0000000000E+00   0.0000000000E+00   0.3454941211E+00  -0.8858485209E-01   0.2635776992E+00   0.1292068403E-01   0.3221046021E-02   0.5818674113E-02
  -0.5499729244E+00   0.1398858323E+01   0.8013517771E+00  -0.1889678403E-02   0.6916653304E-02   0.1351765072E-02   0.0000000000E+00   0.0000000000E+00   0.0000000000E+00   0.4117387863E-01  -0.6741626248E+00   0.1273963584E-01  -0.1521238506E+00  -0.4829329121E-01   0.4886101495E-02
  -0.3633633893E+00   0.1425576661E+01   0.8009722173E+00  -0.1200799279E-02   0.5624510758E-02   0.9722052733E-03   0.0000000000E+00   0.0000000000E+00   0.0000000000E+00   0.3050207649E+00  -0.2710833348E+00   0.2151247036E+00  -0.1474194714E+00  -0.5110512791E-01   0.6164859064E-02
  -0.1794492621E+00   0.1449763430E+01   0.8007296124E+00  -0.6014871015E-03   0.4757889534E-02   0.7296004107E-03   0.0000000000E+00   0.0000000000E+00   0.0000000000E+00   0.4402968610E+00  -0.4163979435E-01   0.3166567594E+00  -0.7082896836E-01  -0.1881353724E-01   0.4041870663E-02
   0.2020214632E-01   0.1435536158E+01   0.8006704055E+00  -0.1836468018E-04   0.4557857611E-02   0.6703935263E-03   0.0000000000E+00   0.0000000000E+00   0.0000000000E+00   0.4045485241E+00  -0.4938576828E-01   0.2723247992E+00   0.1322502505E-01   0.2769753209E-02   0.4846878027E-02
  -0.5419728871E+00   0.1201311976E+01   0.8013843365E+00  -0.2168846135E-02   0.8288775995E-02   0.1384324540E-02   0.0000000000E+00   0.0000000000E+00   0.0000000000E+00   0.9718320393E-01  -0.6723585300E+00   0.2213128965E-01  -0.2000085982E+00  -0.6663640524E-01   0.2027254816E-01
  -0.3562640686E+00   0.1233095558E+01   0.8009276799E+00  -0.1367523631E-02   0.6616628416E-02   0.9276678731E-03   0.0000000000E+00   0.0000000000E+00   0.0000000000E+00   0.4289441513E+00  -0.1883890924E+00   0.2749143835E+00  -0.1968222896E+00  -0.5476991842E-01   0.1093213128E-01
  -0.1703051808E+00   0.1250136832E+01   0.8006862738E+00  -0.6817757682E-03   0.5568962461E-02   0.6862617974E-03   0.0000000000E+00   0.0000000000E+00   0.0000000000E+00   0.4461766751E+00  -0.5778658021E-01   0.2683351890E+00  -0.9161974199E-01  -0.1766595385E-01  -0.1947044858E-04
   0.2065554030E-01   0.1246719193E+01   0.8006163771E+00  -0.5359470193E-04   0.5284972601E-02   0.6163650879E-03   0.0000000000E+00   0.0000000000E+00   0.0000000000E+00   0.4780813972E+00   0.7562497752E-02   0.2911211078E+00   0.1692212186E-01   0.1142114307E-02  -0.1363584154E-02
  -0.5292197974E+00   0.1004848887E+01   0.8013486412E+00  -0.2515247416E-02   0.9644915497E-02   0.1348629153E-02   0.0000000000E+00   0.0000000000E+00   0.0000000000E+00   0.4021365042E+00  -0.4556875129E+00   0.2347350416E+00  -0.2708830546E+00  -0.9075763481E-01   0.1267602453E-01
  -0.3442460618E+00   0.1045134908E+01   0.8008717799E+00  -0.1567037829E-02   0.7544637827E-02   0.8717678754E-03   0.0000000000E+00   0.0000000000E+00   0.0000000000E+00   0.5183722065E+00  -0.1401524598E+00   0.2929885285E+00  -0.2417973046E+00  -0.4495620088E-01  -0.6237409701E-02
  -0.1647585389E+00   0.1068489163E+01   0.8006359301E+00  -0.8120888558E-03   0.6300533371E-02   0.6359181426E-03   0.0000000000E+00   0.0000000000E+00   0.0000000000E+00   0.5118890039E+00  -0.7277830835E-02   0.2819528975E+00  -0.1005105608E+00  -0.1742873928E-01  -0.1088342196E-01
   0.1384363472E-01   0.1073045856E+01   0.8005804893E+00  -0.1680462829E-03   0.5935555976E-02   0.5804773134E-03   0.0000000000E+00   0.0000000000E+00   0.0000000000E+00   0.4973237177E+00   0.1629812143E-01   0.2692228318E+00   0.3706505329E-01   0.8833258553E-02  -0.1358764484E-01
  -0.5032662970E+00   0.8108877183E+00   0.8014695395E+00  -0.2750895963E-02   0.1085331425E-01   0.1469527461E-02   0.0000000000E+00   0.0000000000E+00   0.0000000000E+00   0.6343566979E+00  -0.2189124193E+00   0.4691337753E+00  -0.3605391495E+00  -0.9215240005E-01  -0.3292243816E-01
  -0.3254071417E+00   0.8716539311E+00   0.8009272910E+00  -0.1750582717E-02   0.8329050132E-02   0.9272790101E-03   0.0000000000E+00   0.0000000000E+00   0.0000000000E+00   0.4747498802E+00  -0.1998593684E+00   0.2351129121E+00  -0.2752267085E+00  -0.4121406296E-01  -0.2636475837E-01
  -0.1584964076E+00   0.9064147464E+00   0.8006266224E+00  -0.1001326645E-02   0.6928860369E-02   0.6266104484E-03   0.0000000000E+00   0.0000000000E+00   0.0000000000E+00   0.6331157557E+00   0.1121241798E+00   0.3768050611E+00  -0.1159476236E+00  -0.2356579298E-01  -0.1928207431E-01
   0.4960489073E-02   0.9151987736E+00   0.8005470329E+00  -0.3654679268E-03   0.6518751620E-02   0.5470208828E-03   0.0000000000E+00   0.0000000000E+00   0.0000000000E+00   0.6247599134E+00   0.1291617693E+00   0.3547243861E+00   0.4606800600E-01   0.1528932960E-01  -0.1567502438E-01
  -0.1356578683E+00   0.7453124503E+00   0.8005489423E+00  -0.1141882284E-02   0.7474063349E-02   0.5489302520E-03   0.0000000000E+00   0.0000000000E+00   0.0000000000E+00   0.4670994398E+00  -0.9848256275E-01   0.1217291667E+00  -0.1187469944E+00  -0.4773062342E-01  -0.2289807944E-01
  -0.5184065981E-03   0.7571114837E+00   0.8004499152E+00  -0.5184065981E-03   0.7111483731E-02   0.4499031560E-03   0.0000000000E+00   0.0000000000E+00   0.0000000000E+00   0.4602564976E+00  -0.7569522492E-01   0.1013727318E+00   0.3775211342E-01   0.9598944293E-02  -0.1186604637E-01
  -0.2718018051E+00   0.7084286820E+00   0.8009140081E+00  -0.1852667085E-02   0.8694828980E-02   0.9139961309E-03   0.0000000000E+00   0.0000000000E+00   0.0000000000E+00   0.3915209721E+00  -0.2999385923E+00   0.9587676073E-01  -0.2706365078E+00  -0.9708806521E-01  -0.4451656242E-01
  -0.4067863526E+00   0.6427382986E+00   0.8015902934E+00  -0.2763807554E-02   0.1086349862E-01   0.1590281375E-02   0.0000000000E+00   0.0000000000E+00   0.0000000000E+00   0.2230532588E+00  -0.7067859823E+00   0.1019157857E-01  -0.3608814066E+00  -0.1575411441E+00  -0.1290323621E+00
   0.6574747869E+00  -0.6262678616E+00   0.8041934525E+00   0.2686828861E-02   0.3824846837E-01   0.4193440451E-02   0.0000000000E+00   0.0000000000E+00   0.0000000000E+00   0.8287796151E-01  -0.1053163158E+01   0.1004385165E+00  -0.3504840695E+00   0.5826515693E-01   0.5589569966E-01
   0.7784490826E+00  -0.3968534110E+00   0.8047198281E+00   0.4327976584E-02   0.3371009805E-01   0.4719816108E-02   0.0000000000E+00   0.0000000000E+00   0.0000000000E+00  -0.1849568679E+00  -0.1511641148E+01   0.4664511600E-01  -0.2188953833E+00  -0.1172634911E+00   0.1567393796E+00
   0.6565996343E+00  -0.3354147271E+00   0.8054751112E+00   0.3966146285E-02   0.3413839189E-01   0.5475099154E-02   0.0000000000E+00   0.0000000000E+00   0.0000000000E+00  -0.1282619209E+01  -0.2832274388E+01  -0.8558631300E+00  -0.2416708627E+00  -0.1209255775E-01   0.2418109494E+00
   0.5302834010E+00  -0.4942942045E+00   0.8042254914E+00   0.2452502032E-02   0.3852333848E-01   0.4225479408E-02   0.0000000000E+00   0.0000000000E+00   0.0000000000E+00  -0.2684438932E+00  -0.1604484559E+01  -0.2648490189E+00  -0.3943042166E+00   0.2042158469E+00   0.2478896452E+00
   0.8502737947E+00  -0.1830050463E+00   0.8049755655E+00   0.5940384665E-02   0.2961664266E-01   0.4975553510E-02   0.0000000000E+00   0.0000000000E+00   0.0000000000E+00  -0.1614228757E+00  -0.1709170755E+01   0.1546967603E+00  -0.6855762979E-01  -0.1278874153E+00   0.8608131454E-01
   0.7313920804E+00  -0.1579094662E+00   0.8058537071E+00   0.5286092376E-02   0.2989383184E-01   0.5853695079E-02   0.0000000000E+00   0.0000000000E+00   0.0000000000E+00  -0.1884880315E+01  -0.3693205939E+01  -0.1375021765E+01  -0.9120225617E-01  -0.1314714386E+00   0.1048272760E+00
   0.8782994203E+00   0.2410949002E-01   0.8048825644E+00   0.6646102346E-02   0.2580790102E-01   0.4882552396E-02   0.0000000000E+00   0.0000000000E+00   0.0000000000E+00  -0.2637034836E+00  -0.1881925781E+01   0.7947622395E-01  -0.2160877656E-01  -0.9819724721E-01   0.1099911922E-01
   0.7558376184E+00   0.2587659676E-01   0.8057397501E+00   0.5837618356E-02   0.2587659676E-01   0.5739738080E-02   0.0000000000E+00   0.0000000000E+00   0.0000000000E+00  -0.1457182860E+01  -0.3308254185E+01  -0.9313751139E+00   0.1468754826E-01  -0.1229599373E+00   0.1369725529E-01
   0.9884769556E+00  -0.1829105670E+00   0.8041607479E+00   0.6761693608E-02   0.2874607803E-01   0.4160735859E-02   0.0000000000E+00   0.0000000000E+00   0.0000000000E+00   0.2604588253E+00  -0.1085629977E+01   0.4126304597E+00   0.4015885663E-02  -0.4711784213E-01   0.7607207090E-01
   0.1014664062E+01   0.2473585416E-01   0.8041482669E+00   0.7487182212E-02   0.2556731516E-01   0.4148254923E-02   0.0000000000E+00   0.0000000000E+00   0.0000000000E+00  -0.1908288046E+00  -0.1599753479E+01   0.2201028123E-01  -0.1661357086E-01  -0.4485324057E-01   0.2171097092E-01
   0.1144496224E+01  -0.1805556559E+00   0.8037490357E+00   0.7712383609E-02   0.2823470615E-01   0.3749023666E-02   0.0000000000E+00   0.0000000000E+00   0.0000000000E+00   0.7834297326E-01  -0.1200923558E+01   0.1464753761E+00   0.7442514772E-01   0.2370186407E-01   0.4285212214E-01
   0.1161155877E+01   0.2526042171E-01   0.8036284813E+00   0.8330877216E-02   0.2546515671E-01   0.3628469339E-02   0.0000000000E+00   0.0000000000E+00   0.0000000000E+00   0.4777415114E-01  -0.1209036065E+01   0.1788838662E+00   0.3910237689E-02   0.8250014680E-02   0.5082854871E-02
   0.1311213095E+01  -0.1777116814E+00   0.8034583019E+00   0.8708914585E-02   0.2789409361E-01   0.3458289891E-02   0.0000000000E+00   0.0000000000E+00   0.0000000000E+00   0.1151642345E+00  -0.1090569716E+01   0.1456052672E+00   0.7187758069E-01   0.2873834314E-01   0.3287476211E-01
   0.1324059191E+01   0.2707570145E-01   0.8033151667E+00   0.9226500796E-02   0.2534658945E-01   0.3315154748E-02   0.0000000000E+00   0.0000000000E+00   0.0000000000E+00  -0.6136454605E-01  -0.1239742087E+01   0.2711059959E-01  -0.5880837056E-02   0.3461071075E-01   0.4663591128E-02
   0.1483426548E+01  -0.1754483493E+00   0.8032214438E+00   0.9711238040E-02   0.2764416573E-01   0.3221431769E-02   0.0000000000E+00   0.0000000000E+00   0.0000000000E+00   0.4952435134E-01  -0.1108224235E+01   0.5421714456E-01   0.6628847626E-01   0.3203762044E-01   0.2520581114E-01
   0.1493524061E+01   0.2838566497E-01   0.8030608681E+00   0.1013576094E-01   0.2524740197E-01   0.3060856060E-02   0.0000000000E+00   0.0000000000E+00   0.0000000000E+00  -0.7522495756E-01  -0.1204275918E+01  -0.1909813488E-01  -0.4487796060E-02   0.3219735945E-01   0.4681242988E-02
   0.1658441731E+01  -0.1737844491E+00   0.8029742422E+00   0.1070804136E-01   0.2744926588E-01   0.2974230191E-02   0.0000000000E+00   0.0000000000E+00   0.0000000000E+00   0.4021543815E-01  -0.1072669935E+01   0.2004331349E-01   0.5638147592E-01   0.2646646414E-01   0.2033000222E-01
   0.1665503353E+01   0.2906243611E-01   0.8028032740E+00   0.1104745330E-01   0.2518580211E-01   0.2803261965E-02   0.0000000000E+00   0.0000000000E+00   0.0000000000E+00  -0.8532541508E-01  -0.1174286583E+01  -0.6101245329E-01  -0.4171626508E-02   0.2677239349E-01   0.5561526656E-02
   0.1834772955E+01  -0.1719015602E+00   0.8026795352E+00   0.1169742479E-01   0.2726212982E-01   0.2679523229E-02   0.0000000000E+00   0.0000000000E+00   0.0000000000E+00  -0.1468552517E-01  -0.1080631912E+01  -0.6620837304E-01   0.3742760085E-01   0.8868321767E-02   0.1546189803E-01
   0.1837406839E+01   0.3189845489E-01   0.8024921822E+00   0.1195283933E-01   0.2512345589E-01   0.2492170195E-02   0.0000000000E+00   0.0000000000E+00   0.0000000000E+00  -0.1107854663E+00  -0.1154708906E+01  -0.1253393341E+00  -0.3554786473E-02   0.6274704634E-02   0.5508960475E-02
   0.2012680304E+01  -0.1716461459E+00   0.8022608904E+00   0.1268030416E-01   0.2704279305E-01   0.2260878450E-02   0.0000000000E+00   0.0000000000E+00   0.0000000000E+00   0.1922197782E+00  -0.8060577847E+00   0.8127822736E-01   0.1859131338E-01  -0.6158677265E-02   0.7447165099E-02
   0.2012871837E+01   0.3228856250E-01   0.8020537392E+00   0.1287183704E-01   0.2511594350E-01   0.2053727196E-02   0.0000000000E+00   0.0000000000E+00   0.0000000000E+00   0.1665453417E+00  -0.8062696982E+00   0.8585561242E-01  -0.3304558269E-02  -0.9466684370E-02   0.5617299483E-02
   0.9407959351E+00  -0.3935680596E+00   0.8040269668E+00   0.5274750128E-02   0.3193182642E-01   0.4026954756E-02   0.0000000000E+00   0.0000000000E+00   0.0000000000E+00   0.4861152679E+00  -0.8023079580E+00   0.5081343157E+00  -0.9496618872E-01  -0.4595047216E-01   0.5185444580E-01
   0.1113657784E+01  -0.3870475104E+00   0.8037373208E+00   0.6487204232E-02   0.3102894557E-01   0.3737308800E-02   0.0000000000E+00   0.0000000000E+00   0.0000000000E+00   0.3168395916E+00  -0.1010872099E+01   0.2463355321E+00   0.4666545736E-01   0.1510325143E-01   0.1819386105E-01
   0.1290164753E+01  -0.3814875543E+00   0.8035326860E+00   0.7695243128E-02   0.3044330472E-01   0.3532673979E-02   0.0000000000E+00   0.0000000000E+00   0.0000000000E+00   0.3148642244E+00  -0.9310402175E+00   0.2433169068E+00   0.6075737169E-01   0.1862269877E-01   0.1055744304E-01
   0.1468767365E+01  -0.3776715320E+00   0.8033512998E+00   0.8860784663E-02   0.3003532498E-01   0.3351287754E-02   0.0000000000E+00   0.0000000000E+00   0.0000000000E+00   0.2104193441E+00  -0.9859531112E+00   0.1355740661E+00   0.7557378620E-01   0.2212310749E-01   0.7353861573E-02
   0.1648887127E+01  -0.3752046555E+00   0.8031465089E+00   0.9984697190E-02   0.2970909747E-01   0.3146496882E-02   0.0000000000E+00   0.0000000000E+00   0.0000000000E+00   0.1532229281E+00  -0.9915428034E+00   0.7386820361E-01   0.7438461254E-01   0.1813003656E-01   0.6382853113E-02
   0.1830093745E+01  -0.3734557393E+00   0.8028875730E+00   0.1107776517E-01   0.2939488870E-01   0.2887561045E-02   0.0000000000E+00   0.0000000000E+00   0.0000000000E+00   0.8496810379E-01  -0.1011355313E+01  -0.1136084285E-01   0.5451623109E-01   0.4325620069E-02   0.4783294442E-02
   0.2012149123E+01  -0.3731446569E+00   0.8025192880E+00   0.1214912254E-01   0.2898356312E-01   0.2519276043E-02   0.0000000000E+00   0.0000000000E+00   0.0000000000E+00   0.2310128591E+00  -0.8065482328E+00   0.9017956135E-01   0.3132404454E-01  -0.6243158856E-02  -0.6915593033E-02
   0.8821687828E+00  -0.6072101001E+00   0.8042161249E+00   0.4051697829E-02   0.3514856089E-01   0.4216112940E-02   0.0000000000E+00   0.0000000000E+00   0.0000000000E+00  -0.1480015288E+00  -0.1377086021E+01  -0.1548621310E+00  -0.1957927780E+00  -0.1950687359E-01  -0.2534371615E-01
   0.1078534596E+01  -0.5924788831E+00   0.8040088570E+00   0.5419965952E-02   0.3378491386E-01   0.4008845017E-02   0.0000000000E+00   0.0000000000E+00   0.0000000000E+00   0.2927380932E-01  -0.1257988586E+01  -0.4762932873E-01   0.1851735308E-02  -0.1294853306E-01  -0.2001207986E-01
   0.1266493491E+01  -0.5831685703E+00   0.8038376866E+00   0.6700690568E-02   0.3296535773E-01   0.3837674619E-02   0.0000000000E+00   0.0000000000E+00   0.0000000000E+00   0.1218577924E-01  -0.1217132547E+01  -0.6186146295E-01   0.4176787768E-01  -0.1618859222E-02  -0.1655137111E-01
   0.1452219345E+01  -0.5780118303E+00   0.8036552887E+00   0.7915115436E-02   0.3240720472E-01   0.3655276720E-02   0.0000000000E+00   0.0000000000E+00   0.0000000000E+00   0.4453425993E-01  -0.1146998871E+01  -0.3674496265E-01   0.7523598246E-01  -0.3149044351E-03  -0.9418725763E-02
   0.1637938910E+01  -0.5752437899E+00   0.8034516604E+00   0.9084399788E-02   0.3196350812E-01   0.3451648423E-02   0.0000000000E+00   0.0000000000E+00   0.0000000000E+00   0.5718011015E-01  -0.1091529148E+01  -0.3058346043E-01   0.8513854224E-01   0.7759359642E-03  -0.5289033275E-02
   0.1824310345E+01  -0.5736620099E+00   0.8032064009E+00   0.1022438531E-01   0.3153488312E-01   0.3206388878E-02   0.0000000000E+00   0.0000000000E+00   0.0000000000E+00   0.6322497764E-01  -0.1044394765E+01  -0.3944790241E-01   0.6812189528E-01  -0.4708212664E-02  -0.4276654405E-02
   0.2011345202E+01  -0.5730898844E+00   0.8028977079E+00   0.1134520206E-01   0.3096838164E-01   0.2897695859E-02   0.0000000000E+00   0.0000000000E+00   0.0000000000E+00   0.1672599435E+00  -0.8980413470E+00   0.3459835864E-01   0.4586943130E-01  -0.6965154855E-02  -0.1694005962E-01
   0.1818957519E+01  -0.7722196976E+00   0.8035710316E+00   0.9217449221E-02   0.3367563138E-01   0.3571019649E-02   0.0000000000E+00   0.0000000000E+00   0.0000000000E+00   0.1373857774E+00  -0.9769919947E+00   0.3856672758E-01   0.6129068092E-01  -0.2198336163E-02  -0.6444241682E-02
   0.2010369016E+01  -0.7718171305E+00   0.8033232970E+00   0.1036901583E-01   0.3300787746E-01   0.3323285006E-02   0.0000000000E+00   0.0000000000E+00   0.0000000000E+00   0.1141392119E+00  -0.9749254278E+00  -0.5430586878E-03   0.4165604305E-01   0.1416727968E-02  -0.1790840365E-01
   0.1814918510E+01  -0.9701349428E+00   0.8039949510E+00   0.8278720206E-02   0.3582325717E-01   0.3994939020E-02   0.0000000000E+00   0.0000000000E+00   0.0000000000E+00   0.1112535644E+00  -0.9988473325E+00   0.3451386919E-01   0.3426054940E-01   0.6410763495E-03  -0.1016772032E-01
   0.2009425510E+01  -0.9698497172E+00   0.8037975128E+00   0.9425510344E-02   0.3510188277E-01   0.3797500830E-02   0.0000000000E+00   0.0000000000E+00   0.0000000000E+00   0.3518427351E-01  -0.1064846915E+01  -0.4673595616E-01   0.2232365825E-01   0.8057859172E-02  -0.1904480131E-01
   0.1812089278E+01  -0.1167688196E+01   0.8044527371E+00   0.7443977897E-02   0.3797393427E-01   0.4452725052E-02   0.0000000000E+00   0.0000000000E+00   0.0000000000E+00   0.8000563833E-01  -0.1018925183E+01   0.3208939807E-01   0.1366892874E-01   0.1017871848E-02  -0.8840085276E-02
   0.2008564871E+01  -0.1167499443E+01   0.8042925694E+00   0.8564870631E-02   0.3723809650E-01   0.4292557378E-02   0.0000000000E+00   0.0000000000E+00   0.0000000000E+00  -0.1823336338E-01  -0.1118351963E+01  -0.6359323883E-01   0.8044794520E-02   0.1019152312E-01  -0.1495202370E-01
   0.1810120281E+01  -0.1365057673E+01   0.8049226570E+00   0.6708441282E-02   0.4012325731E-01   0.4922645003E-02   0.0000000000E+00   0.0000000000E+00   0.0000000000E+00   0.4634193590E-01  -0.1039135901E+01   0.2501956101E-01  -0.2529736949E-02   0.4298058791E-03  -0.6198078221E-02
   0.2007797695E+01  -0.1364951674E+01   0.8047850729E+00   0.7797694698E-02   0.3939955645E-01   0.4785060888E-02   0.0000000000E+00   0.0000000000E+00   0.0000000000E+00  -0.4934256486E-01  -0.1142821710E+01  -0.6358548835E-01  -0.2520755082E-02   0.9565858118E-02  -0.9491010878E-02
   0.1808685410E+01  -0.1562343838E+01   0.8053974804E+00   0.6055099525E-02   0.4226660220E-01   0.5397468403E-02   0.0000000000E+00   0.0000000000E+00   0.0000000000E+00   0.1779357757E-01  -0.1053736966E+01   0.1781350472E-01  -0.1322426235E-01  -0.3638027537E-03  -0.3824886618E-02
   0.2007114041E+01  -0.1562313593E+01   0.8052690686E+00   0.7114040945E-02   0.4156919729E-01   0.5269056585E-02   0.0000000000E+00   0.0000000000E+00   0.0000000000E+00  -0.6199444867E-01  -0.1144471003E+01  -0.5322493496E-01  -0.8395339196E-02   0.7594600582E-02  -0.4799160539E-02
   0.1807555350E+01  -0.1759599788E+01   0.8058776145E+00   0.5464469502E-02   0.4439951248E-01   0.5877602490E-02   0.0000000000E+00   0.0000000000E+00   0.0000000000E+00  -0.6421071226E-02  -0.1063905043E+01   0.1004389804E-01  -0.1973997784E-01  -0.1159945000E-02  -0.2228188811E-02
   0.2006496084E+01  -0.1759644239E+01   0.8057479115E+00   0.6496083729E-02   0.4373255147E-01   0.5747899533E-02   0.0000000000E+00   0.0000000000E+00   0.0000000000E+00  -0.6319083534E-01  -0.1131736319E+01  -0.3853758263E-01  -0.1112670240E-01   0.5121887218E-02  -0.1554458562E-02
   0.1806591183E+01  -0.1956851980E+01   0.8063652691E+00   0.4918843146E-02   0.4651831038E-01   0.6365257107E-02   0.0000000000E+00   0.0000000000E+00   0.0000000000E+00  -0.2593242929E-01  -0.1069503256E+01   0.3150131668E-02  -0.2313144651E-01  -0.1842572564E-02  -0.1283647895E-02
   0.2005926160E+01  -0.1956974547E+01   0.8062274086E+00   0.5926159594E-02   0.4587908325E-01   0.6227396634E-02   0.0000000000E+00   0.0000000000E+00   0.0000000000E+00  -0.5804668103E-01  -0.1111005704E+01  -0.2275619575E-01  -0.1202035131E-01   0.2715690064E-02   0.3232406151E-03
   0.1805716723E+01  -0.2154111225E+01   0.8068633335E+00   0.4402012800E-02   0.4862062491E-01   0.6863321532E-02   0.0000000000E+00   0.0000000000E+00   0.0000000000E+00  -0.4195889873E-01  -0.1071905115E+01  -0.2603048484E-02  -0.2401346296E-01  -0.2418684424E-02  -0.8268407074E-03
   0.2005387222E+01  -0.2154318723E+01   0.8067138670E+00   0.5387221878E-02   0.4800256749E-01   0.6713855049E-02   0.0000000000E+00   0.0000000000E+00   0.0000000000E+00  -0.5140737672E-01  -0.1088232738E+01  -0.8517408233E-02  -0.1168293213E-01   0.6712794343E-03   0.1044961133E-02
   0.1804896722E+01  -0.2351378155E+01   0.8073738607E+00   0.3896601964E-02   0.5070571480E-01   0.7373848683E-02   0.0000000000E+00   0.0000000000E+00   0.0000000000E+00  -0.5579102386E-01  -0.1072775135E+01  -0.7312188915E-02  -0.2213372338E-01  -0.2941535384E-02  -0.3808843519E-03
   0.2004861278E+01  -0.2351677438E+01   0.8072124972E+00   0.4861277535E-02   0.5010102228E-01   0.7212485173E-02   0.0000000000E+00   0.0000000000E+00   0.0000000000E+00  -0.4757817109E-01  -0.1068926408E+01   0.1728707617E-02  -0.9932840872E-02  -0.8453871489E-03   0.1146090315E-02
   0.1804125497E+01  -0.2548646003E+01   0.8078977740E+00   0.3383587302E-02   0.5277463748E-01   0.7897762043E-02   0.0000000000E+00   0.0000000000E+00   0.0000000000E+00  -0.6348051616E-01  -0.1068680016E+01  -0.6102262498E-02  -0.1804985609E-01  -0.3435161930E-02  -0.2517518797E-03
   0.2004328845E+01  -0.2549041690E+01   0.8077273236E+00   0.4328844807E-02   0.5217653030E-01   0.7727311591E-02   0.0000000000E+00   0.0000000000E+00   0.0000000000E+00  -0.4605349145E-01  -0.1053760518E+01   0.1006566831E-01  -0.6497387267E-02  -0.1668848658E-02   0.2345654397E-03
   0.1803410803E+01  -0.2745902305E+01   0.8084385934E+00   0.2841983195E-02   0.5483030527E-01   0.8438581438E-02   0.0000000000E+00   0.0000000000E+00   0.0000000000E+00  -0.7608717974E-01  -0.1070372441E+01  -0.7415694518E-02  -0.8179675678E-02  -0.3812737444E-02  -0.1068975435E-03
   0.2003765975E+01  -0.2746394630E+01   0.8082639180E+00   0.3765974638E-02   0.5423475031E-01   0.8263905985E-02   0.0000000000E+00   0.0000000000E+00   0.0000000000E+00  -0.5949203563E-01  -0.1055566790E+01   0.6736687474E-02   0.1977140889E-02  -0.1642695770E-02  -0.4072541300E-03
   0.1802694702E+01  -0.2943122081E+01   0.8089917095E+00   0.2241871934E-02   0.5687791859E-01   0.8991697471E-02   0.0000000000E+00   0.0000000000E+00   0.0000000000E+00  -0.7614312778E-01  -0.1062484801E+01   0.4501757004E-02  -0.1559876138E-03  -0.6122491585E-02   0.1727731264E-02
   0.2003147262E+01  -0.2943716143E+01   0.8088131271E+00   0.3147262257E-02   0.5628385673E-01   0.8813115071E-02   0.0000000000E+00   0.0000000000E+00   0.0000000000E+00  -0.6254301374E-01  -0.1051033560E+01   0.1450907196E-01   0.8152201199E-02  -0.2455338606E-02   0.1192511056E-02
   0.1628111889E+01  -0.7737910663E+00   0.8037981966E+00   0.8048818507E-02   0.3420186869E-01   0.3798184571E-02   0.0000000000E+00   0.0000000000E+00   0.0000000000E+00   0.1375227693E+00  -0.1010016177E+01   0.5085616525E-01   0.7592113842E-01  -0.3270008749E-02  -0.6624891403E-02
   0.1620859928E+01  -0.9716264316E+00   0.8042078921E+00   0.7121388192E-02   0.3642591835E-01   0.4207880084E-02   0.0000000000E+00   0.0000000000E+00   0.0000000000E+00   0.7249690654E-01  -0.1061242501E+01   0.7402637489E-02   0.4159468370E-01  -0.4758388873E-02  -0.1058333411E-01
   0.1615931534E+01  -0.1169028656E+01   0.8046502622E+00   0.6317994383E-02   0.3863058385E-01   0.4650250164E-02   0.0000000000E+00   0.0000000000E+00   0.0000000000E+00   0.3373883559E-01  -0.1079859693E+01  -0.3950455671E-02   0.1578553719E-01  -0.6721790964E-02  -0.8435683831E-02
   0.1612648566E+01  -0.1366201537E+01   0.8051049898E+00   0.5618055638E-02   0.4081331348E-01   0.5104977798E-02   0.0000000000E+00   0.0000000000E+00   0.0000000000E+00   0.8117129414E-03  -0.1091899003E+01  -0.1231057703E-01  -0.5337907227E-02  -0.7854135088E-02  -0.5472204354E-02
   0.1610381937E+01  -0.1563270177E+01   0.8055669337E+00   0.4997586709E-02   0.4297319269E-01   0.5566921707E-02   0.0000000000E+00   0.0000000000E+00   0.0000000000E+00  -0.1947079160E-01  -0.1092599703E+01  -0.1342526145E-01  -0.2047004175E-01  -0.7919951388E-02  -0.3028371677E-02
   0.1608689196E+01  -0.1760302678E+01   0.8060382672E+00   0.4436026001E-02   0.4511009166E-01   0.6038255195E-02   0.0000000000E+00   0.0000000000E+00   0.0000000000E+00  -0.3385042413E-01  -0.1088924432E+01  -0.1303166609E-01  -0.3071560489E-01  -0.7332203612E-02  -0.1565817978E-02
   0.1607302264E+01  -0.1957331530E+01   0.8065213996E+00   0.3915864062E-02   0.4722441000E-01   0.6521387648E-02   0.0000000000E+00   0.0000000000E+00   0.0000000000E+00  -0.4347592756E-01  -0.1082041153E+01  -0.1111093482E-01  -0.3671902025E-01  -0.6447680183E-02  -0.7713866359E-03
   0.1606078770E+01  -0.2154369828E+01   0.8070188840E+00   0.3422049973E-02   0.4931712198E-01   0.7018872017E-02   0.0000000000E+00   0.0000000000E+00   0.0000000000E+00  -0.5125812170E-01  -0.1074632682E+01  -0.9035248735E-02  -0.3902920504E-01  -0.5653397065E-02  -0.4231180678E-03
   0.1604962628E+01  -0.2351418808E+01   0.8075320939E+00   0.2938067828E-02   0.5138986208E-01   0.7532081938E-02   0.0000000000E+00   0.0000000000E+00   0.0000000000E+00  -0.5888436266E-01  -0.1068378512E+01  -0.7378657139E-02  -0.3725115779E-01  -0.5290886006E-02  -0.5929612410E-04
   0.1603958309E+01  -0.2548473055E+01   0.8080609427E+00   0.2445398561E-02   0.5344516494E-01   0.8060930741E-02   0.0000000000E+00   0.0000000000E+00   0.0000000000E+00  -0.6414556744E-01  -0.1061317164E+01  -0.3170300233E-02  -0.3259515249E-01  -0.5624551941E-02   0.4420511497E-03
   0.1603099746E+01  -0.2745511070E+01   0.8086078979E+00   0.1926105574E-02   0.5548665978E-01   0.8607885869E-02   0.0000000000E+00   0.0000000000E+00   0.0000000000E+00  -0.7444593695E-01  -0.1060470152E+01  -0.1619951498E-02  -0.2158232998E-01  -0.6399474237E-02   0.3344624109E-04
   0.1602292393E+01  -0.2942480292E+01   0.8091762080E+00   0.1348353488E-02   0.5751970793E-01   0.9176195956E-02   0.0000000000E+00   0.0000000000E+00   0.0000000000E+00  -0.8361260662E-01  -0.1059906575E+01   0.4848720343E-02  -0.1186440616E-01  -0.1077064396E-01   0.1116423143E-02
   0.1437601153E+01  -0.7770427625E+00   0.8040012209E+00   0.6853523024E-02   0.3474877648E-01   0.4001208946E-02   0.0000000000E+00   0.0000000000E+00   0.0000000000E+00   0.1512274294E+00  -0.1028920216E+01   0.7461353525E-01   0.6232266557E-01  -0.6668178647E-02  -0.9370222931E-02
   0.1427000308E+01  -0.9750805952E+00   0.8044095440E+00   0.5946067746E-02   0.3705574478E-01   0.4409531970E-02   0.0000000000E+00   0.0000000000E+00   0.0000000000E+00   0.6121535482E-01  -0.1096590043E+01   0.8905757787E-02   0.2264133190E-01  -0.7673733223E-02  -0.1279765450E-01
   0.1419912213E+01  -0.1172392996E+01   0.8048454975E+00   0.5182263123E-02   0.3932151417E-01   0.4845485528E-02   0.0000000000E+00   0.0000000000E+00   0.0000000000E+00   0.1211219967E-01  -0.1117441368E+01  -0.1198041837E-01  -0.2989214156E-02  -0.9158339677E-02  -0.9279981097E-02
   0.1415279946E+01  -0.1369274895E+01   0.8052901861E+00   0.4524546242E-02   0.4154511463E-01   0.5290174079E-02   0.0000000000E+00   0.0000000000E+00   0.0000000000E+00  -0.2793873494E-01  -0.1129569438E+01  -0.2815514164E-01  -0.2273162058E-01  -0.9656648130E-02  -0.5410482129E-02
   0.1412155865E+01  -0.1565945386E+01   0.8057407394E+00   0.3941654679E-02   0.4372859399E-01   0.5740727395E-02   0.0000000000E+00   0.0000000000E+00   0.0000000000E+00  -0.4965745470E-01  -0.1125854605E+01  -0.3235536356E-01  -0.3605575167E-01  -0.9184451042E-02  -0.2432379385E-02
   0.1409881866E+01  -0.1762532593E+01   0.8062022572E+00   0.3412755624E-02   0.4587506678E-01   0.6202245166E-02   0.0000000000E+00   0.0000000000E+00   0.0000000000E+00  -0.6361062403E-01  -0.1116937926E+01  -0.3318517163E-01  -0.4469009108E-01  -0.8251532627E-02  -0.7888672458E-03
   0.1408059321E+01  -0.1959099454E+01   0.8066783530E+00   0.2920711177E-02   0.4798801590E-01   0.6678341027E-02   0.0000000000E+00   0.0000000000E+00   0.0000000000E+00  -0.7053165266E-01  -0.1103620244E+01  -0.3000340595E-01  -0.4920684260E-01  -0.7239337783E-02   0.2681345535E-04
   0.1406480022E+01  -0.2155672983E+01   0.8071725655E+00   0.2452082455E-02   0.5007128674E-01   0.7172553542E-02   0.0000000000E+00   0.0000000000E+00   0.0000000000E+00  -0.7549005223E-01  -0.1090614223E+01  -0.2602737010E-01  -0.5021545449E-01  -0.6562846295E-02   0.3150438744E-03
   0.1405067914E+01  -0.2352260872E+01   0.8076867858E+00   0.1991503929E-02   0.5212898826E-01   0.7686773793E-02   0.0000000000E+00   0.0000000000E+00   0.0000000000E+00  -0.7893873889E-01  -0.1078186403E+01  -0.2050761457E-01  -0.4723360380E-01  -0.6641047304E-02   0.3801169781E-03
   0.1403835363E+01  -0.2548852270E+01   0.8082210820E+00   0.1521292539E-02   0.5416553998E-01   0.8221069960E-02   0.0000000000E+00   0.0000000000E+00   0.0000000000E+00  -0.8346205452E-01  -0.1068888377E+01  -0.1510415971E-01  -0.4144755215E-01  -0.7816825705E-02   0.1383631415E-02
   0.1402838789E+01  -0.2745398983E+01   0.8087749481E+00   0.1025518960E-02   0.5618573700E-01   0.8774936105E-02   0.0000000000E+00   0.0000000000E+00   0.0000000000E+00  -0.8269125729E-01  -0.1056390705E+01  -0.2678393091E-02  -0.3033043458E-01  -0.9327324250E-02   0.7229882595E-04
   0.1401950262E+01  -0.2941804438E+01   0.8093651955E+00   0.4782920155E-03   0.5819556183E-01   0.9365183540E-02   0.0000000000E+00   0.0000000000E+00   0.0000000000E+00  -0.1087884085E+00  -0.1069712391E+01  -0.7625143676E-02  -0.2069426514E-01  -0.1466322791E-01  -0.1859401997E-03
   0.1246531045E+01  -0.7837841919E+00   0.8041959145E+00   0.5621234901E-02   0.3543432412E-01   0.4195902472E-02   0.0000000000E+00   0.0000000000E+00   0.0000000000E+00   0.1207131401E+00  -0.1085941186E+01   0.5962814625E-01   0.2768292963E-01  -0.1050014648E-01  -0.1387290793E-01
   0.1232596215E+01  -0.9825732086E+00   0.8046036114E+00   0.4746014861E-02   0.3783471143E-01   0.4603599380E-02   0.0000000000E+00   0.0000000000E+00   0.0000000000E+00   0.1669291730E-01  -0.1160035175E+01  -0.1830949929E-01  -0.1535543753E-01  -0.1064618633E-01  -0.1478443979E-01
   0.1223518078E+01  -0.1179851616E+01   0.8050313177E+00   0.4033388285E-02   0.4016104380E-01   0.5031305693E-02   0.0000000000E+00   0.0000000000E+00   0.0000000000E+00  -0.3517500395E-01  -0.1175329578E+01  -0.4202977556E-01  -0.3878897107E-01  -0.1059616209E-01  -0.9705740439E-02
   0.1217688308E+01  -0.1376201464E+01   0.8054622167E+00   0.3426898491E-02   0.4241721551E-01   0.5462204678E-02   0.0000000000E+00   0.0000000000E+00   0.0000000000E+00  -0.7292962847E-01  -0.1177635730E+01  -0.5784433029E-01  -0.5476167143E-01  -0.9295758695E-02  -0.4589168536E-02
   0.1213805190E+01  -0.1572086980E+01   0.8058972884E+00   0.2887960166E-02   0.4461081014E-01   0.5897276381E-02   0.0000000000E+00   0.0000000000E+00   0.0000000000E+00  -0.8826660145E-01  -0.1161096893E+01  -0.5846416166E-01  -0.6352049528E-01  -0.7143805041E-02  -0.1161895900E-02
   0.1211006819E+01  -0.1767779035E+01   0.8063457134E+00   0.2396759390E-02   0.4675002481E-01   0.6345701446E-02   0.0000000000E+00   0.0000000000E+00   0.0000000000E+00  -0.9603206846E-01  -0.1140606983E+01  -0.5557550508E-01  -0.6741673639E-01  -0.4997334174E-02   0.4721541475E-03
   0.1208781816E+01  -0.1963409259E+01   0.8068125086E+00   0.1936655890E-02   0.4884259092E-01   0.6812496613E-02   0.0000000000E+00   0.0000000000E+00   0.0000000000E+00  -0.9621289636E-01  -0.1116401362E+01  -0.4767248110E-01  -0.6699896659E-01  -0.3377449445E-02   0.1074750063E-02
   0.1206870833E+01  -0.2159035022E+01   0.8073023207E+00   0.1496352635E-02   0.5089611822E-01   0.7302308689E-02   0.0000000000E+00   0.0000000000E+00   0.0000000000E+00  -0.9610030363E-01  -0.1095364269E+01  -0.3993537206E-01  -0.6312733679E-01  -0.2611942106E-02   0.1047334834E-02
   0.1205184002E+01  -0.2354672052E+01   0.8078177180E+00   0.1061932187E-02   0.5291785767E-01   0.7817705975E-02   0.0000000000E+00   0.0000000000E+00   0.0000000000E+00  -0.9537817392E-01  -0.1076804943E+01  -0.3078507921E-01  -0.5546709856E-01  -0.2936684625E-02   0.4372710547E-03
   0.1203742978E+01  -0.2550297569E+01   0.8083596513E+00   0.6173777099E-03   0.5491464094E-01   0.8359639320E-02   0.0000000000E+00   0.0000000000E+00   0.0000000000E+00  -0.1033436333E+00  -0.1069508641E+01  -0.2814733462E-01  -0.4429853636E-01  -0.4586868004E-02   0.1531456606E-02
   0.1202618563E+01  -0.2745831960E+01   0.8089230916E+00   0.1464733846E-03   0.5689287973E-01   0.8923079595E-02   0.0000000000E+00   0.0000000000E+00   0.0000000000E+00  -0.9913072997E-01  -0.1053289723E+01  -0.1238898532E-01  -0.2928384750E-01  -0.6708887215E-02  -0.4390833562E-03
   0.1201672506E+01  -0.2941140584E+01   0.8095345097E+00  -0.3608943100E-03   0.5885941634E-01   0.9534497698E-02   0.0000000000E+00   0.0000000000E+00   0.0000000000E+00  -0.1466576913E+00  -0.1086018037E+01  -0.3484742439E-01  -0.1621777863E-01  -0.1120138769E-01  -0.1661978060E-02
   0.1052696384E+01  -0.7966676884E+00   0.8043984489E+00   0.4344504368E-02   0.3642512056E-01   0.4398436852E-02   0.0000000000E+00   0.0000000000E+00   0.0000000000E+00   0.7643367074E-01  -0.1148941110E+01   0.4075757994E-01  -0.2265256620E-01  -0.2703399006E-01  -0.1854761758E-01
   0.1036059327E+01  -0.9968123212E+00   0.8047919966E+00   0.3518526709E-02   0.3892518878E-01   0.4791984578E-02   0.0000000000E+00   0.0000000000E+00   0.0000000000E+00  -0.8221850234E-02  -0.1192831543E+01  -0.2033853838E-01  -0.7272252550E-01  -0.1851312106E-01  -0.1329697609E-01
   0.1025690151E+01  -0.1193836168E+01   0.8051962261E+00   0.2872901114E-02   0.4129414176E-01   0.5196214052E-02   0.0000000000E+00   0.0000000000E+00   0.0000000000E+00  -0.7544797541E-01  -0.1212605709E+01  -0.6314335746E-01  -0.9476416273E-01  -0.1176055196E-01  -0.8141390221E-02
   0.1019165958E+01  -0.1389080534E+01   0.8055978233E+00   0.2328237723E-02   0.4354988563E-01   0.5597811252E-02   0.0000000000E+00   0.0000000000E+00   0.0000000000E+00  -0.1086950881E+00  -0.1201274563E+01  -0.8051133339E-01  -0.1039441784E+00  -0.4380447801E-02  -0.1890455500E-02
   0.1014841621E+01  -0.1583481813E+01   0.8060057390E+00   0.1840420954E-02   0.4571161726E-01   0.6005727037E-02   0.0000000000E+00   0.0000000000E+00   0.0000000000E+00  -0.1158681613E+00  -0.1169001873E+01  -0.7869710425E-01  -0.1035383181E+00   0.1614908419E-02   0.1115990609E-02
   0.1011715771E+01  -0.1777543957E+01   0.8064338795E+00   0.1392481170E-02   0.4779703299E-01   0.6433867532E-02   0.0000000000E+00   0.0000000000E+00   0.0000000000E+00  -0.1134460009E+00  -0.1132578467E+01  -0.6993237771E-01  -0.9731847143E-01   0.5632874682E-02   0.2033282076E-02
   0.1009218750E+01  -0.1971494914E+01   0.8068884972E+00   0.9685099567E-03   0.4982113618E-01   0.6888485174E-02   0.0000000000E+00   0.0000000000E+00   0.0000000000E+00  -0.1036803218E+00  -0.1094593306E+01  -0.5488737661E-01  -0.8683198031E-01   0.7399883167E-02   0.1770513457E-02
   0.1007073320E+01  -0.2165424970E+01   0.8073742807E+00   0.5598397362E-03   0.5179772044E-01   0.7374268657E-02   0.0000000000E+00   0.0000000000E+00   0.0000000000E+00  -0.9541606162E-01  -0.1063427378E+01  -0.4046318725E-01  -0.7384725006E-01   0.7040224293E-02   0.8735242525E-03
   0.1005189771E+01  -0.2359356815E+01   0.8078934779E+00   0.1543709955E-03   0.5373865492E-01   0.7893465874E-02   0.0000000000E+00   0.0000000000E+00   0.0000000000E+00  -0.8503899984E-01  -0.1034553616E+01  -0.2199599398E-01  -0.5919249067E-01   0.4202584862E-02  -0.7252456867E-03
   0.1003597870E+01  -0.2553259207E+01   0.8084471531E+00  -0.2610502639E-03   0.5565373347E-01   0.8447141053E-02   0.0000000000E+00   0.0000000000E+00   0.0000000000E+00  -0.8385843988E-01  -0.1017731592E+01  -0.9199608148E-02  -0.4274082698E-01  -0.1036581639E-02  -0.6242936181E-03
   0.1002372062E+01  -0.2747042101E+01   0.8090260626E+00  -0.7048475026E-03   0.5755050950E-01   0.9026050581E-02   0.0000000000E+00   0.0000000000E+00   0.0000000000E+00  -0.7418002044E-01  -0.9958954177E+00   0.1319250559E-01  -0.2689966089E-01  -0.7523785690E-02  -0.2165116271E-02
   0.1001408186E+01  -0.2940564009E+01   0.8096466594E+00  -0.1169233686E-02   0.5943599096E-01   0.9646647449E-02   0.0000000000E+00   0.0000000000E+00   0.0000000000E+00  -0.1201925591E+00  -0.1028878955E+01  -0.1071835379E-01  -0.1573735373E-01  -0.1047678244E-01  -0.2590360475E-02
   0.8521886581E+00  -0.8181540953E+00   0.8046053582E+00   0.3035676133E-02   0.3802752670E-01   0.4605346154E-02   0.0000000000E+00   0.0000000000E+00   0.0000000000E+00  -0.2096507205E+00  -0.1394071364E+01  -0.1841734422E+00  -0.1966324843E+00  -0.3149109983E-03  -0.2253053648E-01
   0.8351464911E+00  -0.1019527305E+01   0.8049190125E+00   0.2276961094E-02   0.4058433540E-01   0.4919000495E-02   0.0000000000E+00   0.0000000000E+00   0.0000000000E+00  -0.1904347538E+00  -0.1340592242E+01  -0.1750952824E+00  -0.2115992532E+00   0.1685912177E-01  -0.7006202858E-02
   0.8250280490E+00  -0.1215315679E+01   0.8052684048E+00   0.1716123981E-02   0.4291524104E-01   0.5268392792E-02   0.0000000000E+00   0.0000000000E+00   0.0000000000E+00  -0.2196919065E+00  -0.1316979280E+01  -0.1971478177E+00  -0.2039753570E+00   0.2442216974E-01  -0.5145757379E-02
   0.8187427548E+00  -0.1408457516E+01   0.8056216256E+00   0.1241269754E-02   0.4507613418E-01   0.5621613619E-02   0.0000000000E+00   0.0000000000E+00   0.0000000000E+00  -0.1689246286E+00  -0.1213837726E+01  -0.1441764351E+00  -0.1823505322E+00   0.2723534316E-01   0.2007227027E-02
   0.8145481205E+00  -0.1600471662E+01   0.8059983769E+00   0.8097744506E-03   0.4711038848E-01   0.5998364876E-02   0.0000000000E+00   0.0000000000E+00   0.0000000000E+00  -0.1229464990E+00  -0.1123148644E+01  -0.9768546574E-01  -0.1579221280E+00   0.2798417655E-01   0.2787511470E-02
   0.8114612885E+00  -0.1792070640E+01   0.8064081666E+00   0.4087275328E-03   0.4905102961E-01   0.6408154588E-02   0.0000000000E+00   0.0000000000E+00   0.0000000000E+00  -0.8297197338E-01  -0.1046209066E+01  -0.5637365082E-01  -0.1320370356E+00   0.2830720289E-01   0.2391132407E-02
   0.8089522865E+00  -0.1983544995E+01   0.8068547055E+00   0.2367747782E-04   0.5092222546E-01   0.6854693484E-02   0.0000000000E+00   0.0000000000E+00   0.0000000000E+00  -0.5984293361E-01  -0.9937818006E+00  -0.3035340787E-01  -0.1045240957E+00   0.2874076449E-01   0.9039105790E-03
   0.8067741362E+00  -0.2174991574E+01   0.8073393397E+00  -0.3514917728E-03   0.5274346645E-01   0.7339327685E-02   0.0000000000E+00   0.0000000000E+00   0.0000000000E+00  -0.5479384003E-01  -0.9665746430E+00  -0.2026846483E-01  -0.7507533491E-01   0.3003072209E-01  -0.1297798073E-02
   0.8048526842E+00  -0.2366428094E+01   0.8078659614E+00  -0.7263818070E-03   0.5453113593E-01   0.7865949383E-02   0.0000000000E+00   0.0000000000E+00   0.0000000000E+00  -0.7501081280E-01  -0.9704147480E+00  -0.3174951749E-01  -0.4225094696E-01   0.3168874101E-01  -0.4237316006E-02
   0.8032222470E+00  -0.2557823010E+01   0.8084372957E+00  -0.1110427025E-02   0.5629937992E-01   0.8437283662E-02   0.0000000000E+00   0.0000000000E+00   0.0000000000E+00  -0.1128377674E+00  -0.9958143598E+00  -0.5556455317E-01  -0.3552282577E-02   0.3275657782E-01  -0.7553488334E-02
   0.8019532910E+00  -0.2749106489E+01   0.8090473831E+00  -0.1522447007E-02   0.5805889069E-01   0.9047371121E-02   0.0000000000E+00   0.0000000000E+00   0.0000000000E+00  -0.1845913743E+00  -0.1056946994E+01  -0.1079261383E+00   0.3935996710E-01   0.2995695577E-01  -0.6591169746E-02
   0.8010127180E+00  -0.2940184097E+01   0.8096626445E+00  -0.1954293955E-02   0.5981590269E-01   0.9662632531E-02   0.0000000000E+00   0.0000000000E+00   0.0000000000E+00  -0.2330939118E+00  -0.1100485088E+01  -0.1455563416E+00   0.8016716113E-01   0.3071848168E-01  -0.1429631682E-02
   0.6398051174E+00  -0.8506859502E+00   0.8043670615E+00   0.1744011399E-02   0.4094982583E-01   0.4367049482E-02   0.0000000000E+00   0.0000000000E+00   0.0000000000E+00   0.1316429657E+00  -0.9371922007E+00   0.1074542828E+00  -0.2964011312E+00   0.8093825289E-01  -0.1937182837E-01
   0.6279245603E+00  -0.1049893171E+01   0.8046761454E+00   0.1061021301E-02   0.4315790855E-01   0.4676133390E-02   0.0000000000E+00   0.0000000000E+00   0.0000000000E+00   0.2068206097E+00  -0.8228409001E+00   0.1683958390E+00  -0.2741551818E+00   0.5643579473E-01  -0.5813366789E-02
   0.6206800483E+00  -0.1241837090E+01   0.8050286144E+00   0.5937363437E-03   0.4514281991E-01   0.5028602356E-02   0.0000000000E+00   0.0000000000E+00   0.0000000000E+00   0.1894061329E+00  -0.7958418128E+00   0.1538064419E+00  -0.2439658420E+00   0.4905179989E-01  -0.5650931147E-02
   0.6161024603E+00  -0.1431398466E+01   0.8054123592E+00   0.1904993011E-03   0.4699020425E-01   0.5412347220E-02   0.0000000000E+00   0.0000000000E+00   0.0000000000E+00   0.1595734608E+00  -0.7822230520E+00   0.1328156178E+00  -0.2052008182E+00   0.4016865276E-01  -0.2069029672E-02
   0.6128979345E+00  -0.1620151882E+01   0.8058205384E+00  -0.1839375060E-03   0.4874908769E-01   0.5820526428E-02   0.0000000000E+00   0.0000000000E+00   0.0000000000E+00   0.1351136767E+00  -0.7727698205E+00   0.1152605986E+00  -0.1727376640E+00   0.3410464197E-01  -0.3056393151E-04
   0.6103537168E+00  -0.1808730591E+01   0.8062513383E+00  -0.5391751803E-03   0.5044604853E-01   0.6251326321E-02   0.0000000000E+00   0.0000000000E+00   0.0000000000E+00   0.1213960497E+00  -0.7581533148E+00   0.1067011351E+00  -0.1435427325E+00   0.2974897052E-01   0.1233085220E-02
   0.6081350537E+00  -0.1997309852E+01   0.8067062383E+00  -0.8860143095E-03   0.5209238759E-01   0.6706226272E-02   0.0000000000E+00   0.0000000000E+00   0.0000000000E+00   0.1192975949E+00  -0.7349237865E+00   0.1087869699E+00  -0.1174347608E+00   0.2614974102E-01   0.2298415879E-02
   0.6060978549E+00  -0.2185904891E+01   0.8071806037E+00  -0.1229427050E-02   0.5369337853E-01   0.7180591694E-02   0.0000000000E+00   0.0000000000E+00   0.0000000000E+00   0.1377815571E+00  -0.6935515226E+00   0.1285469171E+00  -0.9329104813E-01   0.2458381634E-01   0.2640270824E-02
   0.6042216969E+00  -0.2374514511E+01   0.8076805697E+00  -0.1574759113E-02   0.5524975950E-01   0.7680557678E-02   0.0000000000E+00   0.0000000000E+00   0.0000000000E+00   0.1636820063E+00  -0.6448765630E+00   0.1552026156E+00  -0.6923835341E-01   0.2421085909E-01   0.1687012704E-02
   0.6025653645E+00  -0.2563124471E+01   0.8082152515E+00  -0.1928074483E-02   0.5676144920E-01   0.8215239484E-02   0.0000000000E+00   0.0000000000E+00   0.0000000000E+00   0.1979481616E+00  -0.5874365022E+00   0.1921466677E+00  -0.4378186170E-01   0.2530273419E-01  -0.5006797127E-02
   0.6012254589E+00  -0.2751714034E+01   0.8088080141E+00  -0.2300776140E-02   0.5823274642E-01   0.8808002108E-02   0.0000000000E+00   0.0000000000E+00   0.0000000000E+00   0.1610997107E+00  -0.6001996154E+00   0.1696483331E+00  -0.1007728742E-01   0.2650710314E-01  -0.8466574309E-02
   0.6002868321E+00  -0.2940320424E+01   0.8094013674E+00  -0.2720364888E-02   0.5967957582E-01   0.9401355393E-02   0.0000000000E+00   0.0000000000E+00   0.0000000000E+00   0.1287658759E+00  -0.6283150988E+00   0.1333192000E+00   0.2723079581E-01   0.2457900662E-01  -0.4916533068E-02
   0.3993491772E+00  -0.2754276701E+01   0.8088027344E+00  -0.3048633803E-02   0.5909352872E-01   0.8802722432E-02   0.0000000000E+00   0.0000000000E+00   0.0000000000E+00  -0.3751932700E-01  -0.7762125373E+00  -0.2745104920E-01  -0.7544334617E-01  -0.2062852872E-02  -0.7920544740E-02
   0.3990428488E+00  -0.2939535665E+01   0.8094221343E+00  -0.3453370245E-02   0.6046433482E-01   0.9422122345E-02   0.0000000000E+00   0.0000000000E+00   0.0000000000E+00  -0.1396008505E+00  -0.8623027982E+00  -0.1262991620E+00  -0.5892752158E-01  -0.1374956480E-01  -0.7973077324E-02
   0.1934740109E+00  -0.2754813244E+01   0.8088250955E+00  -0.3794743121E-02   0.5988211573E-01   0.8825083482E-02   0.0000000000E+00   0.0000000000E+00   0.0000000000E+00   0.1649932850E+00  -0.5673567347E+00   0.1706735211E+00  -0.9926802562E-01  -0.2766109703E-01  -0.8800352733E-02
   0.1942556182E+00  -0.2938777258E+01   0.8095190549E+00  -0.4150422813E-02   0.6122274153E-01   0.9519042897E-02   0.0000000000E+00   0.0000000000E+00   0.0000000000E+00  -0.6981586936E-01  -0.7717378403E+00  -0.2915733583E-01  -0.1051370944E+00  -0.4252072464E-01  -0.1999509843E-01
   0.4002951034E+00  -0.2568826429E+01   0.8082108415E+00  -0.2723847616E-02   0.5767871109E-01   0.8210829496E-02   0.0000000000E+00   0.0000000000E+00   0.0000000000E+00   0.6285865567E-02  -0.7613069335E+00   0.2111338461E-02  -0.8761190938E-01  -0.9706751193E-03  -0.2894043408E-02
   0.1941469625E+00  -0.2570613722E+01   0.8082258238E+00  -0.3515242461E-02   0.5849565802E-01   0.8225811803E-02   0.0000000000E+00   0.0000000000E+00   0.0000000000E+00   0.1094356541E+00  -0.6490223878E+00   0.1031317764E+00  -0.9101448974E-01  -0.2354255141E-01   0.3852950065E-02
   0.4016007110E+00  -0.2383294333E+01   0.8076627095E+00  -0.2402343012E-02   0.5623031746E-01   0.7662697518E-02   0.0000000000E+00   0.0000000000E+00   0.0000000000E+00   0.2725985085E-01  -0.7567711275E+00   0.1567861271E-01  -0.9040743474E-01   0.2555669839E-02   0.9813413693E-03
   0.1952300840E+00  -0.2386500781E+01   0.8076647964E+00  -0.3220273036E-02   0.5708127883E-01   0.7664784378E-02   0.0000000000E+00   0.0000000000E+00   0.0000000000E+00   0.1018267349E+00  -0.6701837405E+00   0.8678642031E-01  -0.7657662186E-01  -0.1572667394E-01   0.4937710247E-02
   0.4031025905E+00  -0.2197726912E+01   0.8071401881E+00  -0.2085820464E-02   0.5476122757E-01   0.7140176069E-02   0.0000000000E+00   0.0000000000E+00   0.0000000000E+00   0.6065102600E-01  -0.7356950583E+00   0.4125044726E-01  -0.9869346399E-01   0.7154387441E-02   0.2313482212E-02
   0.1964964671E+00  -0.2202706290E+01   0.8071189144E+00  -0.2925564912E-02   0.5566172960E-01   0.7118902441E-02   0.0000000000E+00   0.0000000000E+00   0.0000000000E+00   0.9303382344E-01  -0.6828857921E+00   0.6711277494E-01  -0.7264984044E-01  -0.6890315528E-02   0.4616082550E-02
   0.4047296475E+00  -0.2012148013E+01   0.8066392385E+00  -0.1771377461E-02   0.5327785724E-01   0.6639226530E-02   0.0000000000E+00   0.0000000000E+00   0.0000000000E+00   0.7104710233E-01  -0.7358566794E+00   0.4322143752E-01  -0.1107652001E+00   0.1318132093E-01   0.2034176255E-02
   0.1989160120E+00  -0.2022420889E+01   0.8065865770E+00  -0.2632594018E-02   0.5427598093E-01   0.6586565014E-02   0.0000000000E+00   0.0000000000E+00   0.0000000000E+00   0.1103141173E+00  -0.6632686507E+00   0.6825541935E-01  -0.7651438936E-01   0.3394463989E-02   0.1918182703E-02
   0.4070808367E+00  -0.1828938152E+01   0.8061541402E+00  -0.1461856300E-02   0.5179795838E-01   0.6154128187E-02   0.0000000000E+00   0.0000000000E+00   0.0000000000E+00   0.9300949255E-01  -0.7265131191E+00   0.5140392649E-01  -0.1284937651E+00   0.2118020267E-01   0.1867798075E-02
   0.2001282761E+00  -0.1838542168E+01   0.8060364472E+00  -0.2351831887E-02   0.5289345192E-01   0.6036435212E-02   0.0000000000E+00   0.0000000000E+00   0.0000000000E+00   0.1653092621E+00  -0.6047235049E+00   0.9626508900E-01  -0.8750524674E-01   0.1398221044E-01  -0.3663832817E-03
   0.4086931033E+00  -0.1642273079E+01   0.8056796356E+00  -0.1146437655E-02   0.5028223101E-01   0.5679623595E-02   0.0000000000E+00   0.0000000000E+00   0.0000000000E+00   0.8305011726E-01  -0.7501035602E+00   0.2709381867E-01  -0.1521186378E+00   0.3089259400E-01   0.2732738012E-02
   0.2028781160E+00  -0.1660687332E+01   0.8055027749E+00  -0.2072067956E-02   0.5158721760E-01   0.5502762946E-02   0.0000000000E+00   0.0000000000E+00   0.0000000000E+00   0.2293906841E+00  -0.5325209875E+00   0.1293486735E+00  -0.1047132269E+00   0.2586303080E-01  -0.1203055271E-02
   0.4110950163E+00  -0.1457976721E+01   0.8052221576E+00  -0.8259486874E-03   0.4876575854E-01   0.5222145623E-02   0.0000000000E+00   0.0000000000E+00   0.0000000000E+00   0.8030985464E-01  -0.7715446667E+00   0.5105994438E-02  -0.1851260372E+00   0.4269274669E-01   0.5114694486E-03
   0.2045941583E+00  -0.1480974053E+01   0.8049613832E+00  -0.1796699663E-02   0.5031671740E-01   0.4961371167E-02   0.0000000000E+00   0.0000000000E+00   0.0000000000E+00   0.3179710029E+00  -0.4369621309E+00   0.1792211290E+00  -0.1324402596E+00   0.3795615192E-01   0.2156890852E-03
   0.4140231732E+00  -0.1273436592E+01   0.8047650461E+00  -0.4972988010E-03   0.4722220807E-01   0.4765034066E-02   0.0000000000E+00   0.0000000000E+00   0.0000000000E+00   0.1043965877E+00  -0.7706405940E+00   0.2374628110E-02  -0.2264759350E+00   0.5651221456E-01  -0.1058377476E-02
   0.2053181574E+00  -0.1294346293E+01   0.8043996127E+00  -0.1524488627E-02   0.4905215651E-01   0.4399600672E-02   0.0000000000E+00   0.0000000000E+00   0.0000000000E+00   0.3777334745E+00  -0.3733948579E+00   0.1918012595E+00  -0.1673815772E+00   0.4962426978E-01   0.9229886982E-03
   0.4180458098E+00  -0.1088661532E+01   0.8043001530E+00  -0.1308712291E-03   0.4564847822E-01   0.4300141034E-02   0.0000000000E+00   0.0000000000E+00   0.0000000000E+00   0.1431999376E+00  -0.7584327205E+00   0.5692469988E-02  -0.2714503662E+00   0.7633828562E-01  -0.1308575930E-01
   0.2079736740E+00  -0.1116498941E+01   0.8038431148E+00  -0.1242353992E-02   0.4788530862E-01   0.3843102755E-02   0.0000000000E+00   0.0000000000E+00   0.0000000000E+00   0.4820213487E+00  -0.2720645470E+00   0.2370226644E+00  -0.2065808264E+00   0.5972167784E-01  -0.1172570542E-02
   0.4239602881E+00  -0.9084464844E+00   0.8037667771E+00   0.3509121095E-03   0.4409891963E-01   0.3766765140E-02   0.0000000000E+00   0.0000000000E+00   0.0000000000E+00   0.2486672997E+00  -0.6512597229E+00   0.5782071708E-01  -0.3016216848E+00   0.1121744933E+00  -0.3361270093E-01
   0.2116184625E+00  -0.9505724998E+00   0.8032874122E+00  -0.9072475326E-03   0.4683505615E-01   0.3287400183E-02   0.0000000000E+00   0.0000000000E+00   0.0000000000E+00   0.4577653478E+00  -0.2909572276E+00   0.1468470327E+00  -0.2184251174E+00   0.5983256754E-01  -0.8356142861E-02
   0.4271976829E+00  -0.7419253193E+00   0.8032801795E+00   0.9526489498E-03   0.4276136570E-01   0.3280167482E-02   0.0000000000E+00   0.0000000000E+00   0.0000000000E+00   0.8786770833E+00  -0.5710581536E-01   0.6130730251E+00  -0.3913236459E+00   0.1436756774E+00   0.3398890982E-03
   0.2130442151E+00  -0.8069515989E+00   0.8027836471E+00  -0.5067248923E-03   0.4597847008E-01   0.2783635063E-02   0.0000000000E+00   0.0000000000E+00   0.0000000000E+00   0.8613640750E+00   0.5923267585E-01   0.4575211775E+00  -0.2603345749E+00   0.5308833469E-01   0.1241953272E-01
   0.1865418879E+00  -0.6808627432E+00   0.8024232466E+00  -0.5550210927E-03   0.4542557585E-01   0.2423234632E-02   0.0000000000E+00   0.0000000000E+00   0.0000000000E+00   0.3299269382E+00  -0.5371714114E+00  -0.1506118495E+00  -0.3162486104E+00   0.6150111839E-01   0.4451015137E-01
   0.3658360010E+00  -0.6126255741E+00   0.8029148312E+00   0.8119110055E-03   0.4255183986E-01   0.2914819203E-02   0.0000000000E+00   0.0000000000E+00   0.0000000000E+00   0.3342854258E+00  -0.7916766205E+00  -0.8372070271E-01  -0.4509197980E+00   0.1707704761E+00   0.1085479541E+00
   0.1804183603E+01   0.8729933050E+00   0.8015795983E+00   0.9004112991E-02   0.1625497599E-01   0.1579586257E-02   0.0000000000E+00   0.0000000000E+00   0.0000000000E+00   0.9363512807E-01  -0.9846962321E+00   0.2411195238E-02  -0.6055113772E-01  -0.1694585921E-02   0.2042301824E-01
   0.1814992887E+01   0.6617277361E+00   0.8016580033E+00   0.1002023747E-01   0.1849181414E-01   0.1657991321E-02   0.0000000000E+00   0.0000000000E+00   0.0000000000E+00   0.1571211265E+00  -0.9414413160E+00   0.3467176085E-01  -0.6772164262E-01   0.5402202116E-02   0.1004536100E-02
   0.2011197123E+01   0.6621246017E+00   0.8013742858E+00   0.1119712343E-01   0.1907255966E-01   0.1374273808E-02   0.0000000000E+00   0.0000000000E+00   0.0000000000E+00   0.2019080821E+00  -0.8523433444E+00   0.5494413362E-01  -0.3640516356E-01  -0.1033563765E-02   0.1495071361E-01
   0.2010192265E+01   0.8734853928E+00   0.8013564961E+00   0.1019226465E-01   0.1695454782E-01   0.1356484142E-02   0.0000000000E+00   0.0000000000E+00   0.0000000000E+00   0.1166636162E+00  -0.9355345884E+00   0.1294236086E-01  -0.4151213791E-01  -0.2269353349E-02   0.3111829559E-01
   0.1826020486E+01   0.4503994506E+00   0.8019139127E+00   0.1097107556E-01   0.2072953360E-01   0.1913900728E-02   0.0000000000E+00   0.0000000000E+00   0.0000000000E+00   0.5762655534E-01  -0.1020609918E+01  -0.2408111400E-01  -0.6865102444E-01   0.8495888286E-02  -0.1702311208E-01
   0.2012034813E+01   0.4503354385E+00   0.8015559971E+00   0.1203481313E-01   0.2114673948E-01   0.1555985110E-02   0.0000000000E+00   0.0000000000E+00   0.0000000000E+00   0.1805931377E+00  -0.8395149980E+00   0.5460118247E-01  -0.3142195412E-01  -0.2731415157E-02  -0.2712245534E-02
   0.1833486414E+01   0.2403198752E+00   0.8022321152E+00   0.1167497439E-01   0.2293935123E-01   0.2232103192E-02   0.0000000000E+00   0.0000000000E+00   0.0000000000E+00  -0.7305384528E-01  -0.1122634013E+01  -0.9999647943E-01  -0.4755126521E-01   0.7452152796E-02  -0.1159834234E-01
   0.2012629501E+01   0.2398009865E+00   0.8018156960E+00   0.1262950083E-01   0.2315984347E-01   0.1815684016E-02   0.0000000000E+00   0.0000000000E+00   0.0000000000E+00   0.1621913885E+00  -0.8198426150E+00   0.7465143182E-01  -0.2430944235E-01  -0.7837680747E-02  -0.2781899713E-02
   0.1596916325E+01   0.8727770168E+00   0.8017469645E+00   0.7783655295E-02   0.1583299180E-01   0.1746952527E-02   0.0000000000E+00   0.0000000000E+00   0.0000000000E+00   0.1077305624E+00  -0.1001901577E+01   0.1503673575E-01  -0.8180817416E-01   0.2008470777E-02   0.2419928189E-01
   0.1618241553E+01   0.6614067406E+00   0.8018440848E+00   0.8805752642E-02   0.1815645362E-01   0.1844072778E-02   0.0000000000E+00   0.0000000000E+00   0.0000000000E+00   0.2207232314E+00  -0.9242343211E+00   0.9530297698E-01  -0.1031723325E+00   0.1674442342E-01  -0.6820728668E-03
   0.1639342853E+01   0.4500930350E+00   0.8021589427E+00   0.9884182792E-02   0.2050403200E-01   0.2158930745E-02   0.0000000000E+00   0.0000000000E+00   0.0000000000E+00   0.1002139488E+00  -0.1025006922E+01   0.3534819867E-01  -0.1113641755E+00   0.2528662583E-01  -0.2260853021E-01
   0.1654614184E+01   0.2394483390E+00   0.8025239678E+00   0.1071712437E-01   0.2284650495E-01   0.2523955849E-02   0.0000000000E+00   0.0000000000E+00   0.0000000000E+00  -0.3230073792E-01  -0.1126583243E+01  -0.2609906988E-01  -0.7351651702E-01   0.2762598621E-01  -0.1512341545E-01
   0.1387644349E+01   0.8726126626E+00   0.8018645241E+00   0.6517949185E-02   0.1550275857E-01   0.1864512053E-02   0.0000000000E+00   0.0000000000E+00   0.0000000000E+00   0.1277470737E+00  -0.1001532444E+01   0.2954366578E-01  -0.5441365975E-01   0.1973013978E-02   0.3375190343E-01
   0.1420577883E+01   0.6601840398E+00   0.8019671613E+00   0.7539033322E-02   0.1791049478E-01   0.1967149320E-02   0.0000000000E+00   0.0000000000E+00   0.0000000000E+00   0.3074603211E+00  -0.8726447067E+00   0.1703189588E+00  -0.1008683342E+00   0.1783806407E-01  -0.1551628703E-02
   0.1452510648E+01   0.4485292585E+00   0.8023468553E+00   0.8773617660E-02   0.2035699751E-01   0.2346843304E-02   0.0000000000E+00   0.0000000000E+00   0.0000000000E+00   0.1731767298E+00  -0.9911890303E+00   0.1169399823E+00  -0.1295627235E+00   0.2702815154E-01  -0.2894711124E-01
   0.1476270395E+01   0.2379784610E+00   0.8027614113E+00   0.9753184963E-02   0.2280533603E-01   0.2761399288E-02   0.0000000000E+00   0.0000000000E+00   0.0000000000E+00   0.1148405977E-02  -0.1130514699E+01   0.3338805661E-01  -0.8651818023E-01   0.3151259538E-01  -0.1859578775E-01
   0.1174206229E+01   0.8719562670E+00   0.8019547194E+00   0.5199048527E-02   0.1511184198E-01   0.1954707396E-02   0.0000000000E+00   0.0000000000E+00   0.0000000000E+00   0.1731460663E+00  -0.9863161129E+00   0.6179925444E-01  -0.1832416484E-01  -0.6402548928E-02   0.4478312372E-01
   0.1221927578E+01   0.6564858880E+00   0.8020699310E+00   0.6222418200E-02   0.1764443804E-01   0.2069918989E-02   0.0000000000E+00   0.0000000000E+00   0.0000000000E+00   0.3921143866E+00  -0.8473420647E+00   0.2307734626E+00  -0.9505626342E-01   0.1622478410E-01  -0.2914903895E-02
   0.1267139306E+01   0.4443100110E+00   0.8025326386E+00   0.7653466320E-02   0.2022361898E-01   0.2532626576E-02   0.0000000000E+00   0.0000000000E+00   0.0000000000E+00   0.1744430932E+00  -0.1045652161E+01   0.1244337002E+00  -0.1473906974E+00   0.3260015043E-01  -0.3508185065E-01
   0.1300825359E+01   0.2348418468E+00   0.8029995579E+00   0.8796808650E-02   0.2279307783E-01   0.2999545923E-02   0.0000000000E+00   0.0000000000E+00   0.0000000000E+00   0.2588188628E-01  -0.1154932352E+01   0.8526413731E-01  -0.9726436272E-01   0.3502803793E-01  -0.2123952444E-01
   0.9497880175E+00   0.8697468382E+00   0.8020650753E+00   0.3824396522E-02   0.1438573417E-01   0.2065063251E-02   0.0000000000E+00   0.0000000000E+00   0.0000000000E+00   0.7867036902E-01  -0.9928046220E+00   0.2593673150E-01   0.1718809864E+00  -0.1945763366E-01   0.5156846078E-01
   0.1023629945E+01   0.6474625394E+00   0.8022432866E+00   0.4905984743E-02   0.1720600542E-01   0.2243274580E-02   0.0000000000E+00   0.0000000000E+00   0.0000000000E+00   0.4211057011E+00  -0.7433665532E+00   0.3300227593E+00   0.1816345443E-01  -0.2988940367E-01  -0.2186150917E-01
   0.1087721006E+01   0.4354822130E+00   0.8027746338E+00   0.6574165634E-02   0.2000767904E-01   0.2774621832E-02   0.0000000000E+00   0.0000000000E+00   0.0000000000E+00   0.4385032516E+00  -0.7939376035E+00   0.4382649389E+00  -0.9235487190E-01  -0.1247206542E-01  -0.5274041611E-01
   0.1133324999E+01   0.2292298153E+00   0.8033060412E+00   0.7876178695E-02   0.2275329125E-01   0.3306029233E-02   0.0000000000E+00   0.0000000000E+00   0.0000000000E+00   0.1743695843E+00  -0.1059264766E+01   0.2855276980E+00  -0.6737067496E-01  -0.4166360055E-02  -0.3417516778E-01
   0.6910847812E+00   0.8619246155E+00   0.8020533526E+00   0.2536276173E-02   0.1210716051E-01   0.2053340611E-02   0.0000000000E+00   0.0000000000E+00   0.0000000000E+00   0.7008361143E-01  -0.8548326925E+00   0.7818419657E-01   0.3076786734E+00   0.2613335788E-01  -0.1248213667E-01
   0.8337115143E+00   0.6262498959E+00   0.8027954502E+00   0.3938803319E-02   0.1597820393E-01   0.2795438169E-02   0.0000000000E+00   0.0000000000E+00   0.0000000000E+00  -0.7573193834E-01  -0.1213441772E+01   0.1889954704E-01   0.1432094029E+00  -0.8122486305E-01  -0.8866244828E-01
   0.9247972248E+00   0.4197308450E+00   0.8033752883E+00   0.5697774799E-02   0.1938212196E-01   0.3375276301E-02   0.0000000000E+00   0.0000000000E+00   0.0000000000E+00  -0.3823390272E-01  -0.1388069155E+01   0.8569997591E-01  -0.1083093179E-01  -0.6451357312E-01  -0.6670390555E-01
   0.9828465798E+00   0.2211358165E+00   0.8038988966E+00   0.7051608793E-02   0.2254829451E-01   0.3898884580E-02   0.0000000000E+00   0.0000000000E+00   0.0000000000E+00  -0.2443350880E+00  -0.1631947981E+01  -0.2842605435E-01  -0.3930156418E-01  -0.5609223543E-01  -0.4574567364E-01
   0.8541763438E+00   0.2086918660E+00   0.8045944960E+00   0.6305934784E-02   0.2246201099E-01   0.4594484042E-02   0.0000000000E+00   0.0000000000E+00   0.0000000000E+00  -0.1995417034E-01  -0.1600535410E+01   0.3191109049E+00  -0.7181424640E-02  -0.1018917621E+00  -0.6922941085E-01
   0.7374266399E+00   0.1867087667E+00   0.8055320866E+00   0.5649686948E-02   0.2238430474E-01   0.5532074599E-02   0.0000000000E+00   0.0000000000E+00   0.0000000000E+00  -0.2101554091E+01  -0.3881858757E+01  -0.1537551349E+01   0.9012282482E-01  -0.1528886152E+00  -0.7843814902E-01
   0.7925760772E+00   0.3942757441E+00   0.8040347058E+00   0.5023899249E-02   0.1894747108E-01   0.4034693837E-02   0.0000000000E+00   0.0000000000E+00   0.0000000000E+00   0.7633622112E-01  -0.1401999182E+01   0.3446968876E+00   0.5578539914E-01  -0.9334945017E-01  -0.1056240452E+00
   0.6809301298E+00   0.3431214833E+00   0.8049459295E+00   0.4681102764E-02   0.1879565329E-01   0.4945917500E-02   0.0000000000E+00   0.0000000000E+00   0.0000000000E+00  -0.1858949281E+01  -0.3419797501E+01  -0.1325698312E+01   0.1855005923E+00  -0.8649777645E-01  -0.2077324261E+00
   0.6971608916E+00   0.5751676720E+00   0.8033487889E+00   0.3495208572E-02   0.1533760195E-01   0.3348776933E-02   0.0000000000E+00   0.0000000000E+00   0.0000000000E+00  -0.3759947469E+00  -0.1592887694E+01  -0.1405705969E+00   0.1981784742E+00   0.6972183016E-03  -0.1357441075E+00
   0.5881991310E+00   0.4849131585E+00   0.8038390618E+00   0.3452711024E-02   0.1526262145E-01   0.3839049841E-02   0.0000000000E+00   0.0000000000E+00   0.0000000000E+00  -0.9866913615E+00  -0.2290865658E+01  -0.6601949356E+00   0.2688292871E+00   0.1498801735E+00  -0.2302981816E+00
   0.5651949009E+00   0.7233282323E+00   0.8022218973E+00   0.2303536893E-02   0.1205706526E-01   0.2221885323E-02   0.0000000000E+00   0.0000000000E+00   0.0000000000E+00  -0.8121320033E-02  -0.9805964272E+00   0.6715843106E-03   0.2966246523E+00   0.1398290066E+00  -0.1207455968E+00
   0.4671366346E+00   0.6005766694E+00   0.8023333392E+00   0.2201927602E-02   0.1207372539E-01   0.2333327162E-02   0.0000000000E+00   0.0000000000E+00   0.0000000000E+00   0.2237842602E+00  -0.9118759612E+00   0.1504573902E+00   0.3352206305E+00   0.2341755347E+00  -0.1659209587E+00
   0.3944592413E+00   0.8238116607E+00   0.8011881884E+00   0.1269155297E-02   0.9265254687E-02   0.1188176353E-02   0.0000000000E+00   0.0000000000E+00   0.0000000000E+00   0.5388540661E+00  -0.2126979970E+00   0.3284113942E+00   0.3236756421E+00   0.1090727430E+00  -0.2181534887E-01
   0.3241672303E+00   0.6862802725E+00   0.8011548795E+00   0.1100310313E-02   0.9428880534E-02   0.1154867516E-02   0.0000000000E+00   0.0000000000E+00   0.0000000000E+00   0.6922796432E+00  -0.1476380517E+00   0.3948221427E+00   0.3310417757E+00   0.1598533941E+00  -0.7919171020E-01
   0.1987537423E+00   0.8835832941E+00   0.8007187223E+00   0.3774892667E-03   0.7232414059E-02   0.7187103425E-03   0.0000000000E+00   0.0000000000E+00   0.0000000000E+00   0.5556684341E+00  -0.2460408107E-01   0.2936205941E+00   0.2176879853E+00   0.4311277910E-01  -0.2739677319E-02
   0.1652997639E+00   0.7392962986E+00   0.8005958234E+00   0.2304368779E-03   0.7687013580E-02   0.5958114160E-03   0.0000000000E+00   0.0000000000E+00   0.0000000000E+00   0.5215896102E+00  -0.8041890105E-01   0.1732161197E+00   0.1975967241E+00   0.6715153172E-01  -0.8670513168E-02
   0.4365644083E+00   0.9735763089E+00   0.8012433875E+00   0.1403771328E-02   0.8707882850E-02   0.1243375479E-02   0.0000000000E+00   0.0000000000E+00   0.0000000000E+00   0.2919816452E+00  -0.4127721582E+00   0.1583753719E+00   0.3269519631E+00   0.8021501891E-01   0.4144845364E-02
   0.2173509276E+00   0.1037622902E+01   0.8007607828E+00   0.5484196473E-03   0.6626341598E-02   0.7607708049E-03   0.0000000000E+00   0.0000000000E+00   0.0000000000E+00   0.3374715789E+00  -0.2214436900E+00   0.1264625868E+00   0.2061668347E+00   0.3379153038E-01  -0.1648213196E-01
   0.2276475588E+00   0.1216253762E+01   0.8007320124E+00   0.6435377716E-03   0.5883581639E-02   0.7320004115E-03   0.0000000000E+00   0.0000000000E+00   0.0000000000E+00   0.4682447470E+00  -0.5867639888E-01   0.2853009682E+00   0.1587213946E+00   0.3174347376E-01  -0.4045016317E-02
   0.2306721602E+00   0.1407667616E+01   0.8007850368E+00   0.6088262462E-03   0.5059935727E-02   0.7850248287E-03   0.0000000000E+00   0.0000000000E+00   0.0000000000E+00   0.3816891480E+00  -0.1160950004E+00   0.2621212314E+00   0.1179552191E+00   0.3651684272E-01   0.1005062095E-01
   0.2311690438E+00   0.1603813106E+01   0.8008236346E+00   0.5849587543E-03   0.4196816449E-02   0.8236225549E-03   0.0000000000E+00   0.0000000000E+00   0.0000000000E+00   0.2999221687E+00  -0.1726245939E+00   0.2323431307E+00   0.8836953615E-01   0.3191897503E-01   0.5917308214E-02
   0.2308992141E+00   0.1801748731E+01   0.8008319258E+00   0.5472590626E-03   0.3335450558E-02   0.8319137897E-03   0.0000000000E+00   0.0000000000E+00   0.0000000000E+00   0.2198178218E+00  -0.2194958173E+00   0.1956503186E+00   0.5785229708E-01   0.2563456255E-01   0.3078087491E-02
   0.2304329692E+00   0.2000395576E+01   0.8008093307E+00   0.5017491819E-03   0.2504745967E-02   0.8093187319E-03   0.0000000000E+00   0.0000000000E+00   0.0000000000E+00   0.1753259502E+00  -0.2235771916E+00   0.1847124491E+00   0.3433077593E-01   0.1961183483E-01  -0.1315501235E-02
   0.2299899692E+00   0.2199272308E+01   0.8007528980E+00   0.4390862035E-03   0.1735597878E-02   0.7528859509E-03   0.0000000000E+00   0.0000000000E+00   0.0000000000E+00   0.9274244974E-01  -0.2552944726E+00   0.1269312643E+00   0.1476980387E-01   0.1412817761E-01  -0.7176791256E-02
   0.2294229280E+00   0.2398799831E+01   0.8006543496E+00   0.3606690145E-03   0.1057561211E-02   0.6543376123E-03   0.0000000000E+00   0.0000000000E+00   0.0000000000E+00   0.2628681485E+00  -0.2248279359E-01   0.3106339804E+00   0.6121908585E-04   0.9903462905E-02  -0.1536185725E-01
   0.2290631066E+00   0.2598817807E+01   0.8005041831E+00   0.2650595914E-03   0.5090072666E-03   0.5041710721E-03   0.0000000000E+00   0.0000000000E+00   0.0000000000E+00  -0.3494788808E+00  -0.5613888532E+00  -0.3007255182E+00  -0.1088126986E-01   0.6669547870E-02  -0.2602515301E-01
   0.2294353178E+00   0.2799243009E+01   0.8002887116E+00   0.1496008101E-03   0.1368885051E-03   0.2886995642E-03   0.0000000000E+00   0.0000000000E+00   0.0000000000E+00   0.2197795298E+01   0.2089820852E+01   0.2231559772E+01  -0.2058970430E-01   0.4189356073E-02  -0.4107120898E-01
   0.2284518480E+00   0.3000000000E+01   0.8000000120E+00   0.0000000000E+00   0.0000000000E+00   0.0000000000E+00   0.0000000000E+00   0.0000000000E+00   0.0000000000E+00  -0.6993704694E+01  -0.7021697608E+01  -0.6993685746E+01  -0.2604319437E-01  -0.4005571851E-04  -0.5055584585E-01
   0.4483407604E+00   0.1169693597E+01   0.8011585609E+00   0.1487182397E-02   0.7558237426E-02   0.1158548880E-02   0.0000000000E+00   0.0000000000E+00   0.0000000000E+00   0.3573555098E+00  -0.3371128545E+00   0.2319501621E+00   0.2289958236E+00   0.7455297246E-01   0.7817505613E-02
   0.4499897082E+00   0.1372408367E+01   0.8011766441E+00   0.1331420161E-02   0.6338456691E-02   0.1176632104E-02   0.0000000000E+00   0.0000000000E+00   0.0000000000E+00   0.1279218010E+00  -0.4928023567E+00   0.7958637987E-01   0.1531170094E+00   0.5648494846E-01   0.1740885328E-01
   0.4495252811E+00   0.1575276695E+01   0.8011402306E+00   0.1209899127E-02   0.5138244595E-02   0.1140218594E-02   0.0000000000E+00   0.0000000000E+00   0.0000000000E+00   0.8418599359E-01  -0.4981122921E+00   0.7080660649E-01   0.1139174991E+00   0.4112114205E-01   0.3714966275E-02
   0.4489580295E+00   0.1777936388E+01   0.8010773850E+00   0.1084317513E-02   0.4006437567E-02   0.1077373003E-02   0.0000000000E+00   0.0000000000E+00   0.0000000000E+00   0.4327008876E-01  -0.4829249185E+00   0.6115214686E-01   0.7259151346E-01   0.3095824169E-01   0.3563175842E-03
   0.4485422585E+00   0.1980683244E+01   0.8009942316E+00   0.9539635394E-03   0.2962143796E-02   0.9942195784E-03   0.0000000000E+00   0.0000000000E+00   0.0000000000E+00   0.4798130442E-01  -0.4199708302E+00   0.8791856106E-01   0.4129201725E-01   0.2319111247E-01  -0.4956923155E-02
   0.4481959826E+00   0.2183647895E+01   0.8008875937E+00   0.8057835944E-03   0.2025864701E-02   0.8875816786E-03   0.0000000000E+00   0.0000000000E+00   0.0000000000E+00   0.1111518283E-02  -0.4004764192E+00   0.5640897524E-01   0.1464109051E-01   0.1709330492E-01  -0.1058472996E-01
   0.4478364015E+00   0.2387025723E+01   0.8007499596E+00   0.6405734934E-03   0.1221542731E-02   0.7499476499E-03   0.0000000000E+00   0.0000000000E+00   0.0000000000E+00   0.2177710607E+00  -0.1071172732E+00   0.2800223487E+00  -0.5994600681E-02   0.1227849523E-01  -0.1845024764E-01
   0.4476421583E+00   0.2590893224E+01   0.8005678890E+00   0.4554502876E-03   0.5826543499E-03   0.5678770000E-03   0.0000000000E+00   0.0000000000E+00   0.0000000000E+00  -0.4415152349E+00  -0.6799064150E+00  -0.3829662246E+00  -0.2179030331E-01   0.8426294150E-02  -0.2909313642E-01
   0.4479030613E+00   0.2795232346E+01   0.8003231485E+00   0.2464893313E-03   0.1552558033E-03   0.3231365365E-03   0.0000000000E+00   0.0000000000E+00   0.0000000000E+00   0.2371805009E+01   0.2252364679E+01   0.2411961666E+01  -0.3480118644E-01   0.5248397984E-02  -0.4502369804E-01
   0.4470604360E+00   0.3000000000E+01   0.8000000120E+00   0.0000000000E+00   0.0000000000E+00   0.0000000000E+00   0.0000000000E+00   0.0000000000E+00   0.0000000000E+00  -0.7733462492E+01  -0.7764303173E+01  -0.7733385064E+01  -0.4139981709E-01  -0.4825080076E-04  -0.5540019442E-01
   0.6815217155E+00   0.1116378303E+01   0.8018010121E+00   0.2481819540E-02   0.9710903357E-02   0.1801000071E-02   0.0000000000E+00   0.0000000000E+00   0.0000000000E+00   0.9107082493E-01  -0.7571098684E+00   0.1089952039E+00   0.2629871837E+00   0.6976933141E-01   0.2165999370E-01
   0.6736685028E+00   0.1337137259E+01   0.8016089633E+00   0.2153693809E-02   0.7853659264E-02   0.1608951324E-02   0.0000000000E+00   0.0000000000E+00   0.0000000000E+00   0.9986649622E-01  -0.6587317787E+00   0.1319814303E+00   0.1684513488E+00   0.5406566145E-01   0.4651941227E-02
   0.6698710095E+00   0.1547309870E+01   0.8014579505E+00   0.1917101516E-02   0.6249060317E-02   0.1457938530E-02   0.0000000000E+00   0.0000000000E+00   0.0000000000E+00   0.8732477071E-01  -0.6106721610E+00   0.1282966617E+00   0.1325328203E+00   0.4572537050E-01   0.4054195732E-02
   0.6685789480E+00   0.1754432562E+01   0.8013203109E+00   0.1692498984E-02   0.4818201770E-02   0.1320298938E-02   0.0000000000E+00   0.0000000000E+00   0.0000000000E+00   0.5580182033E-01  -0.5675448985E+00   0.1122701591E+00   0.8319366316E-01   0.3608130497E-01  -0.1174400214E-02
   0.6682188052E+00   0.1961087150E+01   0.8011844443E+00   0.1467301153E-02   0.3533639691E-02   0.1184432254E-02   0.0000000000E+00   0.0000000000E+00   0.0000000000E+00   0.4905006819E-01  -0.4995673780E+00   0.1180637327E+00   0.4599736377E-01   0.2825689624E-01  -0.5595562472E-02
   0.6679940887E+00   0.2167975696E+01   0.8010354100E+00   0.1224166668E-02   0.2400196365E-02   0.1035398035E-02   0.0000000000E+00   0.0000000000E+00   0.0000000000E+00  -0.1215992698E-01  -0.4796925651E+00   0.6486172809E-01   0.1293128920E-01   0.2158965890E-01  -0.1200212358E-01
   0.6677585481E+00   0.2375200035E+01   0.8008613191E+00   0.9608500968E-03   0.1438854618E-02   0.8613070699E-03   0.0000000000E+00   0.0000000000E+00   0.0000000000E+00   0.2297631174E+00  -0.1462085907E+00   0.3080411150E+00  -0.1337089218E-01   0.1610587868E-01  -0.2059981013E-01
   0.6675414979E+00   0.2582849344E+01   0.8006455781E+00   0.6729309375E-03   0.6831540497E-03   0.6455661439E-03   0.0000000000E+00   0.0000000000E+00   0.0000000000E+00  -0.5260011053E+00  -0.8000788146E+00  -0.4559865103E+00  -0.3422508251E-01   0.1154268004E-01  -0.3198284743E-01
   0.6674479696E+00   0.2791073544E+01   0.8003671952E+00   0.3545735854E-03   0.1816540428E-03   0.3671831502E-03   0.0000000000E+00   0.0000000000E+00   0.0000000000E+00   0.2664122564E+01   0.2528035943E+01   0.2712001767E+01  -0.5035824572E-01   0.7410398843E-02  -0.4973734737E-01
   0.6674458380E+00   0.3000000000E+01   0.8000000120E+00   0.0000000000E+00   0.0000000000E+00   0.0000000000E+00   0.0000000000E+00   0.0000000000E+00   0.0000000000E+00  -0.8843629433E+01  -0.8878980427E+01  -0.8843582317E+01  -0.5769517918E-01  -0.4778610531E-04  -0.6175700194E-01
   0.8892510201E+00   0.2788256297E+01   0.8004193212E+00   0.4774000929E-03   0.2139871428E-03   0.4193091671E-03   0.0000000000E+00   0.0000000000E+00   0.0000000000E+00   0.2975153629E+01   0.2817537618E+01   0.3030706871E+01  -0.6894578822E-01   0.8493005781E-02  -0.5630029144E-01
   0.8889284130E+00   0.3000000000E+01   0.8000000120E+00   0.0000000000E+00   0.0000000000E+00   0.0000000000E+00   0.0000000000E+00   0.0000000000E+00   0.0000000000E+00  -0.1028220789E+02  -0.1032341504E+02  -0.1028220583E+02  -0.7600478726E-01  -0.2822840998E-04  -0.6958228223E-01
   0.1111376437E+01   0.2786657725E+01   0.8004575505E+00   0.6177765089E-03   0.2431045227E-03   0.4575385353E-03   0.0000000000E+00   0.0000000000E+00   0.0000000000E+00   0.3307030898E+01   0.3128361804E+01   0.3366802564E+01  -0.9178477402E-01   0.6314632158E-02  -0.6094068821E-01
   0.1110863090E+01   0.3000000000E+01   0.8000000120E+00   0.0000000000E+00   0.0000000000E+00   0.0000000000E+00   0.0000000000E+00   0.0000000000E+00   0.0000000000E+00  -0.1162000177E+02  -0.1166656844E+02  -0.1161999853E+02  -0.9714749415E-01  -0.1739644637E-04  -0.7543542471E-01
   0.1333715193E+01   0.2785929832E+01   0.8004729668E+00   0.7774730955E-03   0.2647917295E-03   0.4729548314E-03   0.0000000000E+00   0.0000000000E+00   0.0000000000E+00   0.3556581580E+01   0.3360120399E+01   0.3615604404E+01  -0.1162815658E+00   0.6527722227E-02  -0.6274768615E-01
   0.1333017710E+01   0.3000000000E+01   0.8000000120E+00   0.0000000000E+00   0.0000000000E+00   0.0000000000E+00   0.0000000000E+00   0.0000000000E+00   0.0000000000E+00  -0.1263545005E+02  -0.1268609566E+02  -0.1263545131E+02  -0.1216453964E+00  -0.6582285468E-05  -0.7774670769E-01
   0.1556193086E+01   0.2785696128E+01   0.8004803397E+00   0.9575759354E-03   0.2852484767E-03   0.4803277407E-03   0.0000000000E+00   0.0000000000E+00   0.0000000000E+00   0.3765244497E+01   0.3552070530E+01   0.3822725638E+01  -0.1457038271E+00   0.4449671910E-02  -0.6333310519E-01
   0.1555290700E+01   0.3000000000E+01   0.8000000120E+00   0.0000000000E+00   0.0000000000E+00   0.0000000000E+00   0.0000000000E+00   0.0000000000E+00   0.0000000000E+00  -0.1368632362E+02  -0.1374118048E+02  -0.1368632454E+02  -0.1498096366E+00  -0.1544162090E-05  -0.7901267770E-01
   0.1778759790E+01   0.2785665766E+01   0.8004899148E+00   0.1157589807E-02   0.3028063262E-03   0.4899028040E-03   0.0000000000E+00   0.0000000000E+00   0.0000000000E+00   0.3999471521E+01   0.3768938615E+01   0.4056478417E+01  -0.1679144250E+00   0.2195889722E-01  -0.6659871039E-01
   0.1777629730E+01   0.3000000000E+01   0.8000000120E+00   0.0000000000E+00   0.0000000000E+00   0.0000000000E+00   0.0000000000E+00   0.0000000000E+00   0.0000000000E+00  -0.1433502806E+02  -0.1439248589E+02  -0.1433502945E+02  -0.1815978016E+00   0.2686663566E-06  -0.7961628336E-01
   0.2001375183E+01   0.2785768963E+01   0.8006674864E+00   0.1375183082E-02   0.4067234052E-03   0.6674744142E-03   0.0000000000E+00   0.0000000000E+00   0.0000000000E+00   0.5210782835E+01   0.4930950716E+01   0.5312172000E+01  -0.1887144953E+00   0.4471996397E-01  -0.8006067730E-01
   0.2000000000E+01   0.3000000000E+01   0.8000000120E+00   0.0000000000E+00   0.0000000000E+00   0.0000000000E+00   0.0000000000E+00   0.0000000000E+00   0.0000000000E+00  -0.2067802199E+02  -0.2076090301E+02  -0.2067802357E+02  -0.2166611341E+00   0.1251542189E-05  -0.1141001994E+00
   0.8895203890E+00   0.2577283750E+01   0.8007385813E+00   0.9226620070E-03   0.8043200353E-03   0.7385692882E-03   0.0000000000E+00   0.0000000000E+00   0.0000000000E+00  -0.7071319029E+00  -0.1025132479E+01  -0.6241620224E+00  -0.5130265118E-01   0.1243613023E-01  -0.3757199141E-01
   0.1111807490E+01   0.2574049365E+01   0.8008027352E+00   0.1205949558E-02   0.9118452248E-03   0.8027232021E-03   0.0000000000E+00   0.0000000000E+00   0.0000000000E+00  -0.8226199516E+00  -0.1180845559E+01  -0.7326457178E+00  -0.7584493684E-01   0.7908133022E-02  -0.4035870381E-01
   0.1334327719E+01   0.2572517997E+01   0.8008271089E+00   0.1522558737E-02   0.9909974399E-03   0.8270969091E-03   0.0000000000E+00   0.0000000000E+00   0.0000000000E+00  -0.8941075031E+00  -0.1284416891E+01  -0.8044369314E+00  -0.9988819803E-01   0.5652278063E-02  -0.4079737969E-01
   0.1557011973E+01   0.2571984647E+01   0.8008352496E+00   0.1871002511E-02   0.1061317284E-02   0.8352375713E-03   0.0000000000E+00   0.0000000000E+00   0.0000000000E+00  -0.9915024756E+00  -0.1410094920E+01  -0.9031015786E+00  -0.1284387938E+00   0.6299799741E-02  -0.4010893096E-01
   0.1779802529E+01   0.2571902929E+01   0.8008707403E+00   0.2248139166E-02   0.1138389030E-02   0.8707283419E-03   0.0000000000E+00   0.0000000000E+00   0.0000000000E+00  -0.9811752341E+00  -0.1432650405E+01  -0.8852267725E+00  -0.1342555987E+00   0.2362420762E-01  -0.4341999113E-01
   0.2002647449E+01   0.2572148722E+01   0.8010448270E+00   0.2647449024E-02   0.1427332180E-02   0.1044815021E-02   0.0000000000E+00   0.0000000000E+00   0.0000000000E+00  -0.1818968593E+01  -0.2334068417E+01  -0.1674659072E+01  -0.1346507428E+00   0.4169839057E-01  -0.3369390468E-01
   0.8897763589E+00   0.2366881459E+01   0.8009947611E+00   0.1327762855E-02   0.1699539376E-02   0.9947490593E-03   0.0000000000E+00   0.0000000000E+00   0.0000000000E+00   0.1441781342E+00  -0.2935894373E+00   0.2417179054E+00  -0.2800904073E-01   0.1560164775E-01  -0.2675790064E-01
   0.1112167319E+01   0.2361983372E+01   0.8010744031E+00   0.1740539358E-02   0.1922201560E-02   0.1074391089E-02   0.0000000000E+00   0.0000000000E+00   0.0000000000E+00   0.1523750787E+00  -0.3374736420E+00   0.2586325592E+00  -0.5500891436E-01   0.7225432391E-02  -0.2833524888E-01
   0.1334840882E+01   0.2359603769E+01   0.8010967865E+00   0.2196301637E-02   0.2082469092E-02   0.1096774450E-02   0.0000000000E+00   0.0000000000E+00   0.0000000000E+00   0.1745210923E+00  -0.3546980883E+00   0.2798640293E+00  -0.7927882672E-01   0.2623893494E-02  -0.2734868405E-01
   0.1557713740E+01   0.2358730102E+01   0.8010979089E+00   0.2691139842E-02   0.2220411597E-02   0.1097896878E-02   0.0000000000E+00   0.0000000000E+00   0.0000000000E+00   0.2016738424E+00  -0.3612795944E+00   0.3052774984E+00  -0.1041958971E+00   0.5232456482E-02  -0.2572954588E-01
   0.1780713418E+01   0.2358589038E+01   0.8011374505E+00   0.3219937832E-02   0.2389058303E-02   0.1137438476E-02   0.0000000000E+00   0.0000000000E+00   0.0000000000E+00   0.2139337194E+00  -0.3895718471E+00   0.3293275716E+00  -0.9654307359E-01   0.1678781807E-01  -0.2514320291E-01
   0.2003772575E+01   0.2358935875E+01   0.8012471207E+00   0.3772575125E-02   0.2848904811E-02   0.1247108698E-02   0.0000000000E+00   0.0000000000E+00   0.0000000000E+00   0.1145979790E+00  -0.5396447742E+00   0.2679044790E+00  -0.8418582401E-01   0.2515836171E-01  -0.1252403127E-01
   0.8900133642E+00   0.2156904336E+01   0.8012128353E+00   0.1701024230E-02   0.2848266234E-02   0.1212823346E-02   0.0000000000E+00   0.0000000000E+00   0.0000000000E+00  -0.1778109479E+00  -0.7245034565E+00  -0.7369001500E-01  -0.1073783540E-02   0.1885303849E-01  -0.1904758597E-01
   0.1112477425E+01   0.2150323056E+01   0.8012980868E+00   0.2232675346E-02   0.3210686231E-02   0.1298074829E-02   0.0000000000E+00   0.0000000000E+00   0.0000000000E+00  -0.1928325344E+00  -0.7992351999E+00  -0.7954873960E-01  -0.3462918735E-01   0.5352049894E-02  -0.1935861574E-01
   0.1335282343E+01   0.2147064314E+01   0.8013084883E+00   0.2813003274E-02   0.3463133998E-02   0.1308476332E-02   0.0000000000E+00   0.0000000000E+00   0.0000000000E+00  -0.1891228445E+00  -0.8376356686E+00  -0.7856141432E-01  -0.6130526837E-01  -0.2839823111E-03  -0.1738241318E-01
   0.1558326121E+01   0.2145822510E+01   0.8012953673E+00   0.3435610883E-02   0.3676399937E-02   0.1295355303E-02   0.0000000000E+00   0.0000000000E+00   0.0000000000E+00  -0.1710434855E+00  -0.8548959177E+00  -0.6329109750E-01  -0.8196553985E-01   0.3006442572E-02  -0.1518688890E-01
   0.1781518299E+01   0.2145609821E+01   0.8013174842E+00   0.4093488839E-02   0.3947941259E-02   0.1317472234E-02   0.0000000000E+00   0.0000000000E+00   0.0000000000E+00  -0.2071055994E+00  -0.9318819845E+00  -0.8754412011E-01  -0.6562366547E-01   0.9033467046E-02  -0.1235926198E-01
   0.2004774186E+01   0.2146000178E+01   0.8013565596E+00   0.4774185869E-02   0.4538567754E-02   0.1356547598E-02   0.0000000000E+00   0.0000000000E+00   0.0000000000E+00  -0.3230925095E+00  -0.1085870648E+01  -0.1775885021E+00  -0.4729588877E-01   0.1038613411E-01  -0.2841050912E-03
   0.8902654427E+00   0.1947278346E+01   0.8014114156E+00   0.2049304730E-02   0.4216875970E-02   0.1411403583E-02   0.0000000000E+00   0.0000000000E+00   0.0000000000E+00  -0.1676934061E+00  -0.8120981308E+00  -0.6192881073E-01   0.2969920873E-01   0.2200080513E-01  -0.1352110379E-01
   0.1112826833E+01   0.1938997924E+01   0.8014907424E+00   0.2692712598E-02   0.4731474201E-02   0.1490730411E-02   0.0000000000E+00   0.0000000000E+00   0.0000000000E+00  -0.1508768462E+00  -0.8576422314E+00  -0.3754348348E-01  -0.1568340961E-01   0.2219842663E-02  -0.1272241507E-01
   0.1335769467E+01   0.1934833235E+01   0.8014804856E+00   0.3387387279E-02   0.5075634749E-02   0.1480473591E-02   0.0000000000E+00   0.0000000000E+00   0.0000000000E+00  -0.1322501497E+00  -0.8794375672E+00  -0.2467929559E-01  -0.4577474954E-01  -0.2805627661E-02  -0.1025249183E-01
   0.1558970912E+01   0.1933198001E+01   0.8014462793E+00   0.4124152374E-02   0.5362181070E-02   0.1446267273E-02   0.0000000000E+00   0.0000000000E+00   0.0000000000E+00  -0.1000568771E+00  -0.8801448422E+00   0.2830324859E-02  -0.6272616001E-01   0.1797954292E-03  -0.7824580595E-02
   0.1782326713E+01   0.1932888016E+01   0.8014360343E+00   0.4894272558E-02   0.5729426127E-02   0.1436022335E-02   0.0000000000E+00   0.0000000000E+00   0.0000000000E+00  -0.1373171986E+00  -0.9529242806E+00  -0.2580975986E-01  -0.4187450096E-01   0.2823233801E-02  -0.3787517068E-02
   0.2005684286E+01   0.1933256500E+01   0.8014167861E+00   0.5684285723E-02   0.6412379513E-02   0.1416774127E-02   0.0000000000E+00   0.0000000000E+00   0.0000000000E+00  -0.1347783938E+00  -0.9770252094E+00  -0.6607240665E-02  -0.2233193959E-01   0.1263820378E-02   0.5711719866E-02
   0.8909587386E+00   0.1737893323E+01   0.8016017214E+00   0.2379429589E-02   0.5786403358E-02   0.1601709439E-02   0.0000000000E+00   0.0000000000E+00   0.0000000000E+00  -0.2323316848E+00  -0.9690603995E+00  -0.1287617717E+00   0.6162110651E-01   0.2435127322E-01  -0.1008592443E-01
   0.1113834016E+01   0.1727944124E+01   0.8016612555E+00   0.3132455871E-02   0.6452074097E-02   0.1661243497E-02   0.0000000000E+00   0.0000000000E+00   0.0000000000E+00  -0.1810959572E+00  -0.9782146464E+00  -0.7451082664E-01  -0.7463992113E-03  -0.2283992747E-02  -0.7130711082E-02
   0.1336967537E+01   0.1722894807E+01   0.8016233455E+00   0.3936596619E-02   0.6877087182E-02   0.1623333493E-02   0.0000000000E+00   0.0000000000E+00   0.0000000000E+00  -0.1593032789E+00  -0.9918502371E+00  -0.6266343096E-01  -0.3416877743E-01  -0.4828740384E-02  -0.4144202248E-02
   0.1560242393E+01   0.1720857774E+01   0.8015629005E+00   0.4779553172E-02   0.7226023683E-02   0.1562888486E-02   0.0000000000E+00   0.0000000000E+00   0.0000000000E+00  -0.1255546213E+00  -0.9853079230E+00  -0.3613692892E-01  -0.4903538997E-01  -0.2537048815E-02  -0.1904027187E-02
   0.1783508396E+01   0.1720417335E+01   0.8015131745E+00   0.5650495940E-02   0.7669044984E-02   0.1513162482E-02   0.0000000000E+00   0.0000000000E+00   0.0000000000E+00  -0.1511579312E+00  -0.1037293525E+01  -0.5784434783E-01  -0.2629612992E-01  -0.1024171315E-02   0.2098089009E-02
   0.2006536140E+01   0.1720694105E+01   0.8014501834E+00   0.6536139755E-02   0.8414425197E-02   0.1450171419E-02   0.0000000000E+00   0.0000000000E+00   0.0000000000E+00  -0.1326024327E+00  -0.1036887001E+01  -0.2872903864E-01  -0.7325378210E-02  -0.2302121547E-02   0.9490190063E-02
   0.8936732040E+00   0.1528114294E+01   0.8017919701E+00   0.2708756013E-02   0.7555104132E-02   0.1791958104E-02   0.0000000000E+00   0.0000000000E+00   0.0000000000E+00  -0.2816252811E+00  -0.1105884117E+01  -0.1821527235E+00   0.9685589007E-01   0.2447450380E-01  -0.1383811122E-02
   0.1117396973E+01   0.1516829589E+01   0.8018118155E+00   0.3572362608E-02   0.8353089012E-02   0.1811803510E-02   0.0000000000E+00   0.0000000000E+00   0.0000000000E+00  -0.1662111236E+00  -0.1046117007E+01  -0.7430216981E-01   0.7961439560E-02  -0.8300203806E-02   0.1070827833E-02
   0.1340655313E+01   0.1511150839E+01   0.8017410220E+00   0.4486073240E-02   0.8837229036E-02   0.1741010031E-02   0.0000000000E+00   0.0000000000E+00   0.0000000000E+00  -0.1331240554E+00  -0.1041447175E+01  -0.5669060829E-01  -0.2839453299E-01  -0.6106295244E-02   0.2533614196E-02
   0.1563455108E+01   0.1508808518E+01   0.8016526007E+00   0.5431537685E-02   0.9229448452E-02   0.1652588718E-02   0.0000000000E+00   0.0000000000E+00   0.0000000000E+00  -0.9949673882E-01  -0.1026864537E+01  -0.3285067281E-01  -0.4332216853E-01  -0.4371927611E-02   0.3597674250E-02
   0.1785743703E+01   0.1508246676E+01   0.8015626906E+00   0.6395092998E-02   0.9720106060E-02   0.1562678637E-02   0.0000000000E+00   0.0000000000E+00   0.0000000000E+00  -0.1060896921E+00  -0.1048352620E+01  -0.4024705941E-01  -0.1984919500E-01  -0.2565693146E-02   0.6650102621E-02
   0.2007365436E+01   0.1508401203E+01   0.8014650596E+00   0.7365435527E-02   0.1050310331E-01   0.1465047586E-02   0.0000000000E+00   0.0000000000E+00   0.0000000000E+00  -0.9130718752E-01  -0.1044349999E+01  -0.1916232730E-01  -0.1340575066E-02  -0.1964115652E-02   0.1320230288E-01
   0.9014651975E+00   0.1316013421E+01   0.8019695908E+00   0.3059287457E-02   0.9545651413E-02   0.1969578788E-02   0.0000000000E+00   0.0000000000E+00   0.0000000000E+00  -0.2613542158E+00  -0.1167146640E+01  -0.1733957059E+00   0.1191831053E+00   0.2002300243E-01  -0.9675340909E-03
   0.1126729194E+01   0.1304681012E+01   0.8019353562E+00   0.4045073510E-02   0.1042933196E-01   0.1935344177E-02   0.0000000000E+00   0.0000000000E+00   0.0000000000E+00  -0.9597841482E-01  -0.1054898324E+01  -0.3182810488E-01   0.7318216424E-02  -0.1391391319E-01   0.5362258890E-02
   0.1349397723E+01   0.1299214319E+01   0.8018331777E+00   0.5071942888E-02   0.1093728861E-01   0.1833165705E-02   0.0000000000E+00   0.0000000000E+00   0.0000000000E+00  -0.9441723493E-01  -0.1073003928E+01  -0.4985569249E-01  -0.2702023284E-01  -0.5948278021E-02   0.9190170073E-02
   0.1570262172E+01   0.1296951324E+01   0.8017177092E+00   0.6117322002E-02   0.1134517374E-01   0.1717697242E-02   0.0000000000E+00   0.0000000000E+00   0.0000000000E+00  -0.6523395391E-01  -0.1053027613E+01  -0.3240753893E-01  -0.4393719795E-01  -0.4672567937E-02   0.1032782487E-01
   0.1789807397E+01   0.1296389307E+01   0.8015904087E+00   0.7166817410E-02   0.1184972720E-01   0.1590396686E-02   0.0000000000E+00   0.0000000000E+00   0.0000000000E+00  -0.5845439378E-01  -0.1048226673E+01  -0.3029875415E-01  -0.2136192161E-01  -0.2335963429E-02   0.1268863599E-01
   0.2008213017E+01   0.1296480218E+01   0.8014583792E+00   0.8213017335E-02   0.1264337776E-01   0.1458367203E-02   0.0000000000E+00   0.0000000000E+00   0.0000000000E+00  -0.6311798906E-01  -0.1055170389E+01  -0.3321259783E-01  -0.4038674095E-02   0.3279476799E-04   0.2019358872E-01
   0.9186336507E+00   0.1097849761E+01   0.8021486831E+00   0.3481279715E-02   0.1180485137E-01   0.2148671092E-02   0.0000000000E+00   0.0000000000E+00   0.0000000000E+00  -0.2819987346E+00  -0.1251993882E+01  -0.2006290178E+00   0.1696715394E+00   0.8265698811E-02   0.3770374239E-01
   0.1145425865E+01   0.1089993753E+01   0.8020286675E+00   0.4583905229E-02   0.1268486350E-01   0.2028655543E-02   0.0000000000E+00   0.0000000000E+00   0.0000000000E+00  -0.7358403179E-01  -0.1112126305E+01  -0.5210577486E-01   0.4344691372E-02  -0.2083238962E-01   0.3106373788E-01
   0.1365479208E+01   0.1086511171E+01   0.8018878064E+00   0.5726548323E-02   0.1316527069E-01   0.1887794368E-02   0.0000000000E+00   0.0000000000E+00   0.0000000000E+00  -0.1854129757E-02  -0.1049581052E+01  -0.7303507728E-02  -0.3467053293E-01  -0.6636392897E-02   0.2609531695E-01
   0.1581899698E+01   0.1085074358E+01   0.8017476264E+00   0.6874858079E-02   0.1355307804E-01   0.1747614359E-02   0.0000000000E+00   0.0000000000E+00   0.0000000000E+00   0.2304280390E-01  -0.1024582740E+01   0.3419507109E-02  -0.6028019236E-01  -0.4617293514E-02   0.2125499301E-01
   0.1796223415E+01   0.1084760381E+01   0.8015883538E+00   0.8012184796E-02   0.1403446148E-01   0.1588341784E-02   0.0000000000E+00   0.0000000000E+00   0.0000000000E+00   0.2890570164E-01  -0.1006757285E+01   0.2183594871E-02  -0.4072143583E-01  -0.2724659646E-02   0.2037371392E-01
   0.2009135115E+01   0.1084908223E+01   0.8014143590E+00   0.9135114525E-02   0.1480350346E-01   0.1414346999E-02   0.0000000000E+00   0.0000000000E+00   0.0000000000E+00   0.8263880340E-02  -0.1017862283E+01  -0.2339693867E-01  -0.2514073609E-01   0.1984845415E-04   0.2941103301E-01
  -0.1800626853E+01  -0.6139661820E+00   0.1004400780E+01  -0.1379285296E-01   0.3593651900E-01   0.4400779698E-02   0.0000000000E+00   0.0000000000E+00   0.0000000000E+00   0.1029904606E+00  -0.1122311384E+01   0.1958068962E-03  -0.9268169866E-01  -0.3205439797E-03  -0.1605986849E-01
  -0.1808389216E+01  -0.4001672514E+00   0.1004041393E+01  -0.1454976603E-01   0.3340364064E-01   0.4041392582E-02   0.0000000000E+00   0.0000000000E+00   0.0000000000E+00   0.1975964229E-01  -0.1195446954E+01  -0.8244089318E-01  -0.9582746401E-01  -0.1304037893E-01   0.1789971513E-01
  -0.2015900930E+01  -0.3988642148E+00   0.1003527533E+01  -0.1590093020E-01   0.3326016118E-01   0.3527532892E-02   0.0000000000E+00   0.0000000000E+00   0.0000000000E+00   0.1128444948E+00  -0.1048291153E+01  -0.3147630051E-01  -0.5844469994E-01   0.3568839009E-02  -0.1574952926E-02
  -0.2015203350E+01  -0.6122873400E+00   0.1004013456E+01  -0.1520335002E-01   0.3565353400E-01   0.4013455905E-02   0.0000000000E+00   0.0000000000E+00   0.0000000000E+00   0.1152936945E+00  -0.1073772219E+01  -0.1007072948E-01  -0.6765043976E-01   0.1194140193E-02  -0.3225043049E-01
  -0.1815214535E+01  -0.1901060890E+00   0.1003980347E+01  -0.1506724534E-01   0.3094578301E-01   0.3980346755E-02   0.0000000000E+00   0.0000000000E+00   0.0000000000E+00  -0.1743063614E+00  -0.1338091719E+01  -0.2005083956E+00  -0.5905464468E-01  -0.8549607454E-02   0.3690512948E-01
  -0.2016256041E+01  -0.1880011427E+00   0.1003339532E+01  -0.1625604132E-01   0.3097660629E-01   0.3339531921E-02   0.0000000000E+00   0.0000000000E+00   0.0000000000E+00  -0.2225687944E-02  -0.1102374712E+01  -0.9406967829E-01  -0.2605071740E-01   0.1867426561E-01   0.2205932082E-01
  -0.1820149039E+01   0.1628759265E-01   0.1003853443E+01  -0.1508101948E-01   0.2855894065E-01   0.3853442921E-02   0.0000000000E+00   0.0000000000E+00   0.0000000000E+00  -0.1853094785E+00  -0.1318091138E+01  -0.1694179395E+00   0.1163285416E-02   0.3465868169E-02   0.5794094606E-02
  -0.2016170241E+01   0.1742730587E-01   0.1003174045E+01  -0.1617024115E-01   0.2880962187E-01   0.3174045425E-02   0.0000000000E+00   0.0000000000E+00   0.0000000000E+00  -0.3616448238E-02  -0.1069533965E+01  -0.6143619851E-01   0.4155690876E-02   0.3381879716E-01   0.6238020751E-02
  -0.1584094383E+01  -0.6176520796E+00   0.1004689973E+01  -0.1234004270E-01   0.3600678744E-01   0.4689972625E-02   0.0000000000E+00   0.0000000000E+00   0.0000000000E+00   0.1487712507E+00  -0.1109924657E+01   0.5304629473E-01  -0.1047190153E+00  -0.5015931642E-02  -0.2605146540E-01
  -0.1599629209E+01  -0.4023763710E+00   0.1004357017E+01  -0.1316897885E-01   0.3337113297E-01   0.4357016593E-02   0.0000000000E+00   0.0000000000E+00   0.0000000000E+00  -0.3212356779E-01  -0.1282501520E+01  -0.1199423462E+00  -0.1265606616E+00  -0.3354114027E-01   0.1943829559E-01
  -0.1614819060E+01  -0.1906329179E+00   0.1004381642E+01  -0.1389265997E-01   0.3080361212E-01   0.4381642257E-02   0.0000000000E+00   0.0000000000E+00   0.0000000000E+00  -0.2540200265E+00  -0.1442018826E+01  -0.2407947925E+00  -0.8651477507E-01  -0.3763451429E-01   0.4381464386E-01
  -0.1628313082E+01   0.1964967408E-01   0.1004278685E+01  -0.1402439230E-01   0.2828228508E-01   0.4278685456E-02   0.0000000000E+00   0.0000000000E+00   0.0000000000E+00  -0.2041231437E+00  -0.1358647090E+01  -0.1411801591E+00   0.6243461398E-02  -0.2853013003E-01   0.5678393325E-02
  -0.1363057780E+01  -0.6244232835E+00   0.1004927022E+01  -0.1081304965E-01   0.3613535747E-01   0.4927022112E-02   0.0000000000E+00   0.0000000000E+00   0.0000000000E+00   0.1644860594E+00  -0.1134975358E+01   0.6549671904E-01  -0.8817130226E-01   0.1985561009E-03  -0.4258689231E-01
  -0.1389470715E+01  -0.4052595459E+00   0.1004597939E+01  -0.1174964536E-01   0.3336304810E-01   0.4597939446E-02   0.0000000000E+00   0.0000000000E+00   0.0000000000E+00  -0.1076376019E+00  -0.1398152048E+01  -0.1932721859E+00  -0.1421984000E+00  -0.3696544458E-01   0.1641183958E-01
  -0.1415255920E+01  -0.1920118709E+00   0.1004720266E+01  -0.1273931986E-01   0.3069832113E-01   0.4720265849E-02   0.0000000000E+00   0.0000000000E+00   0.0000000000E+00  -0.4343530317E+00  -0.1642102852E+01  -0.3857657395E+00  -0.1115511001E+00  -0.4940750701E-01   0.4996879937E-01
  -0.1435636354E+01   0.1791223286E-01   0.1004655186E+01  -0.1300032417E-01   0.2811071086E-01   0.4655186280E-02   0.0000000000E+00   0.0000000000E+00   0.0000000000E+00  -0.3991751200E+00  -0.1564519624E+01  -0.2876204640E+00   0.6105464550E-02  -0.4332810515E-01   0.6483807583E-02
  -0.1131059071E+01  -0.6349344183E+00   0.1005196502E+01  -0.9158271296E-02   0.3652060770E-01   0.5196501771E-02   0.0000000000E+00   0.0000000000E+00   0.0000000000E+00   0.4510679315E+00  -0.8704239142E+00   0.3643416259E+00   0.1757076642E-01   0.3526913465E-01  -0.6878447589E-01
  -0.1179360399E+01  -0.4074443244E+00   0.1004909109E+01  -0.1030397901E-01   0.3348276364E-01   0.4909109250E-02   0.0000000000E+00   0.0000000000E+00   0.0000000000E+00  -0.2273501724E+00  -0.1535226565E+01  -0.2806966257E+00  -0.9605464702E-01   0.1354227419E-01   0.2899489776E-01
  -0.1220210672E+01  -0.1919611551E+00   0.1005121637E+01  -0.1163876170E-01   0.3064735192E-01   0.5121637126E-02   0.0000000000E+00   0.0000000000E+00   0.0000000000E+00  -0.6725106943E+00  -0.1888362750E+01  -0.5649330015E+00  -0.1056577270E+00  -0.6829001934E-02   0.5838144359E-01
  -0.1247273917E+01   0.1625554197E-01   0.1005073188E+01  -0.1203738736E-01   0.2797834497E-01   0.5073188209E-02   0.0000000000E+00   0.0000000000E+00   0.0000000000E+00  -0.5442689907E+00  -0.1720982795E+01  -0.3727232847E+00   0.2200310901E-01  -0.1448994092E-01   0.7158248534E-02
  -0.8659112511E+00  -0.6488173690E+00   0.1005488559E+01  -0.7322555092E-02   0.3813891704E-01   0.5488558631E-02   0.0000000000E+00   0.0000000000E+00   0.0000000000E+00  -0.1142172910E+00  -0.1390973971E+01  -0.1355105863E+00   0.1903742981E+00  -0.4914951216E-03   0.8131843396E-02
  -0.9768666042E+00  -0.3989315113E+00   0.1005844750E+01  -0.9045840182E-02   0.3411596170E-01   0.5844750055E-02   0.0000000000E+00   0.0000000000E+00   0.0000000000E+00  -0.1791182082E+00  -0.1492804537E+01  -0.6270727903E-01  -0.2465597936E-01   0.1592167000E+00   0.9625384914E-01
  -0.1038167398E+01  -0.1842392235E+00   0.1006016601E+01  -0.1068905809E-01   0.3083474952E-01   0.6016600943E-02   0.0000000000E+00   0.0000000000E+00   0.0000000000E+00  -0.4620920649E+00  -0.1779901290E+01  -0.2451640863E+00  -0.8319434561E-01   0.6824548009E-01   0.4757561633E-01
  -0.1068893338E+01   0.1569417677E-01   0.1005931630E+01  -0.1116075777E-01   0.2795548577E-01   0.5931629835E-02   0.0000000000E+00   0.0000000000E+00   0.0000000000E+00  -0.5247142738E+00  -0.1780670397E+01  -0.2378577465E+00   0.2098084474E-01   0.5216875564E-01  -0.4138919490E-03
  -0.8842960959E+00  -0.1674822237E+00   0.1007313146E+01  -0.9914076877E-02   0.3093706429E-01   0.7313146022E-02   0.0000000000E+00   0.0000000000E+00   0.0000000000E+00  -0.9883176238E-01  -0.1582307028E+01   0.2878673319E+00  -0.4820577083E-01   0.2053222400E+00   0.5594078436E-01
  -0.9125732229E+00   0.2265200388E-01   0.1007192044E+01  -0.1038730590E-01   0.2770454588E-01   0.7192043970E-02   0.0000000000E+00   0.0000000000E+00   0.0000000000E+00  -0.1855357810E+00  -0.1608343706E+01   0.2577732963E+00  -0.5463761154E-02   0.1695585506E+00   0.2228894028E-01
  -0.7409840491E+00  -0.1337885129E+00   0.1009340398E+01  -0.9296682136E-02   0.3093415312E-01   0.9340397761E-02   0.0000000000E+00   0.0000000000E+00   0.0000000000E+00  -0.1385188191E+01  -0.3103678776E+01  -0.6822292847E+00   0.4906882266E-01   0.2780807398E+00   0.1580430672E+00
  -0.7596017330E+00   0.2745796059E-01   0.1009250167E+01  -0.9601732956E-02   0.2745796059E-01   0.9250166637E-02   0.0000000000E+00   0.0000000000E+00   0.0000000000E+00  -0.1202458941E+01  -0.2928256307E+01  -0.4800044728E+00   0.1526282816E-02   0.2608699745E+00   0.3484021522E-02
  -0.8236209766E+00  -0.3595597019E+00   0.1007203494E+01  -0.8418144614E-02   0.3451968510E-01   0.7203493562E-02   0.0000000000E+00   0.0000000000E+00   0.0000000000E+00  -0.8882251780E+00  -0.2319998652E+01  -0.5410606541E+00   0.6780590187E-01   0.1565097009E+00   0.1781211532E+00
  -0.6848664783E+00  -0.2886460192E+00   0.1008547666E+01  -0.8096625347E-02   0.3459157876E-01   0.8547665569E-02   0.0000000000E+00   0.0000000000E+00   0.0000000000E+00  -0.8539609505E+00  -0.2513793141E+01  -0.3302925658E+00   0.1333330842E+00  -0.1833068801E-01   0.3641749490E+00
  -0.7204371018E+00  -0.5260602687E+00   0.1005929381E+01  -0.6959072767E-02   0.3812022427E-01   0.5929381430E-02   0.0000000000E+00   0.0000000000E+00   0.0000000000E+00  -0.1626054278E+00  -0.1483106974E+01  -0.8164747394E-01   0.2468103723E+00  -0.1061445345E+00   0.2927892267E+00
  -0.5951455405E+00  -0.4266497822E+00   0.1006583310E+01  -0.6607251532E-02   0.3824016183E-01   0.6583310107E-02   0.0000000000E+00   0.0000000000E+00   0.0000000000E+00  -0.3717364246E+00  -0.1999300494E+01  -0.2792072969E+00   0.2780212357E+00  -0.2111008434E+00   0.4379482489E+00
  -0.5674270326E+00  -0.6542760581E+00   0.1004235010E+01  -0.5379074560E-02   0.4171736487E-01   0.4235009715E-02   0.0000000000E+00   0.0000000000E+00   0.0000000000E+00   0.8876605351E+00  -0.3078793259E+00   0.6275673035E+00   0.3658641801E+00  -0.1588058070E+00   0.1263769801E+00
  -0.4746488231E+00  -0.5429512020E+00   0.1004423443E+01  -0.5063345083E-02   0.4184743201E-01   0.4423443335E-02   0.0000000000E+00   0.0000000000E+00   0.0000000000E+00   0.7658650639E-01  -0.1279776680E+01  -0.1784300209E+00   0.4143970212E+00  -0.2254029991E+00   0.3658653970E+00
  -0.3791398326E+00  -0.7469981230E+00   0.1003249948E+01  -0.3875158559E-02   0.4524750299E-01   0.3249947876E-02   0.0000000000E+00   0.0000000000E+00   0.0000000000E+00   0.1515929374E-01  -0.9600974681E+00  -0.3557586572E+00   0.4126847918E+00  -0.1052947762E+00   0.1856841482E-01
  -0.3275977095E+00  -0.6314373911E+00   0.1002907189E+01  -0.3695817454E-02   0.4501482793E-01   0.2907189374E-02   0.0000000000E+00   0.0000000000E+00   0.0000000000E+00   0.8690067043E+00  -0.1200505141E+00   0.4532298972E+00   0.4045741183E+00  -0.1857914743E+00   0.1522106864E+00
  -0.1861570632E+00  -0.8065449553E+00   0.1002619614E+01  -0.2719134172E-02   0.4763162573E-01   0.2619614069E-02   0.0000000000E+00   0.0000000000E+00   0.0000000000E+00  -0.5184593703E-01  -0.7554744154E+00  -0.4356641818E+00   0.2563773099E+00  -0.6348771404E-01   0.3083731498E-01
  -0.1638126001E+00  -0.6853139215E+00   0.1002168819E+01  -0.2604939075E-02   0.4715593552E-01   0.2168819265E-02   0.0000000000E+00   0.0000000000E+00   0.0000000000E+00   0.7454925542E+00   0.4094157272E-01   0.3053241304E+00   0.2303831556E+00  -0.6590839529E-01   0.8824809829E-01
   0.7311635670E-02  -0.8324259437E+00   0.1002488606E+01  -0.1782034330E-02   0.4826546531E-01   0.2488605639E-02   0.0000000000E+00   0.0000000000E+00   0.0000000000E+00  -0.2719543262E+00  -0.8723578284E+00  -0.6379934616E+00  -0.9841083971E-02   0.1503588981E-01   0.4170683030E-01
   0.4279097544E-02  -0.7022851532E+00   0.1002050711E+01  -0.1703496456E-02   0.4769100481E-01   0.2050710790E-02   0.0000000000E+00   0.0000000000E+00   0.0000000000E+00   0.7150232186E+00   0.9338716581E-01   0.2904733226E+00  -0.5035064234E-01   0.2225958231E-01   0.1124517989E+00
  -0.6220170601E+00  -0.7899383543E+00   0.1004562647E+01  -0.5472456055E-02   0.4241476072E-01   0.4562647370E-02   0.0000000000E+00   0.0000000000E+00   0.0000000000E+00  -0.2497490082E+00  -0.1404006012E+01  -0.4538531883E+00   0.3867350180E+00  -0.1329847512E+00  -0.3470100414E-01
  -0.4082418865E+00  -0.8806629675E+00   0.1003808781E+01  -0.4045028492E-02   0.4597575454E-01   0.3808780736E-02   0.0000000000E+00   0.0000000000E+00   0.0000000000E+00  -0.2406271468E+00  -0.1192080013E+01  -0.5321608016E+00   0.4022598812E+00  -0.8548364015E-01  -0.1464899406E-01
  -0.2023101548E+00  -0.9399740689E+00   0.1003250455E+01  -0.2963627821E-02   0.4825359611E-01   0.3250455082E-02   0.0000000000E+00   0.0000000000E+00   0.0000000000E+00  -0.1921804085E+00  -0.8867447485E+00  -0.4966509647E+00   0.2469342538E+00  -0.5777612225E-01  -0.2995431864E-02
   0.1659791719E-02  -0.9708783100E+00   0.1003139834E+01  -0.2066772281E-02   0.4889242999E-01   0.3139834233E-02   0.0000000000E+00   0.0000000000E+00   0.0000000000E+00  -0.2109918926E+00  -0.8167019885E+00  -0.5083300346E+00   0.8948976375E-02   0.9664319006E-02  -0.4408987464E-03
  -0.2131684899E+00  -0.1096914990E+01   0.1003895777E+01  -0.3186213870E-02   0.4908063038E-01   0.3895776857E-02   0.0000000000E+00   0.0000000000E+00   0.0000000000E+00  -0.1247113397E+00  -0.8225072816E+00  -0.3702164976E+00   0.2023215831E+00  -0.4374376227E-01  -0.7389497553E-02
  -0.2401538443E-02  -0.1130603394E+01   0.1003832255E+01  -0.2291605443E-02   0.4967597615E-01   0.3832255481E-02   0.0000000000E+00   0.0000000000E+00   0.0000000000E+00  -0.1852918990E+00  -0.8131782709E+00  -0.4245438826E+00  -0.3400018380E-02   0.7486279908E-02  -0.3621607239E-02
  -0.2197765304E+00  -0.1268544139E+01   0.1004579010E+01  -0.3393714382E-02   0.5008715060E-01   0.4579010336E-02   0.0000000000E+00   0.0000000000E+00   0.0000000000E+00  -0.1713692992E+00  -0.8859257920E+00  -0.3613303206E+00   0.1698734834E+00  -0.4242904458E-01  -0.1885245645E-01
  -0.4966888474E-02  -0.1302327313E+01   0.1004527874E+01  -0.2506855474E-02   0.5060740695E-01   0.4527874094E-02   0.0000000000E+00   0.0000000000E+00   0.0000000000E+00  -0.2383369729E+00  -0.8974055056E+00  -0.4281959068E+00   0.8068853831E-03   0.5104643001E-02  -0.1512230802E-01
  -0.2235246167E+00  -0.1447900554E+01   0.1005266571E+01  -0.3604473677E-02   0.5123482599E-01   0.5266570577E-02   0.0000000000E+00   0.0000000000E+00   0.0000000000E+00  -0.2081429623E+00  -0.9430961996E+00  -0.3498364620E+00   0.1439378314E+00  -0.3834260375E-01  -0.2222128879E-01
  -0.6525670295E-02  -0.1479995447E+01   0.1005231758E+01  -0.2728314295E-02   0.5166821285E-01   0.5231757742E-02   0.0000000000E+00   0.0000000000E+00   0.0000000000E+00  -0.2733967015E+00  -0.9642044690E+00  -0.4171536800E+00   0.3062501485E-02   0.1112082770E-02  -0.2208883583E-01
  -0.2256644073E+00  -0.1631081704E+01   0.1005957521E+01  -0.3839403281E-02   0.5249583640E-01   0.5957521451E-02   0.0000000000E+00   0.0000000000E+00   0.0000000000E+00  -0.2182229432E+00  -0.9741394843E+00  -0.3162363302E+00   0.1242364426E+00  -0.3411339012E-01  -0.2454612930E-01
  -0.7567469538E-02  -0.1660363269E+01   0.1005932029E+01  -0.2974868538E-02   0.5284195125E-01   0.5932028989E-02   0.0000000000E+00   0.0000000000E+00   0.0000000000E+00  -0.2875515737E+00  -0.1009492940E+01  -0.3900933812E+00   0.5751794597E-02  -0.2389538235E-02  -0.2497453991E-01
  -0.2269741001E+00  -0.1816108433E+01   0.1006638228E+01  -0.4089534093E-02   0.5384805703E-01   0.6638227520E-02   0.0000000000E+00   0.0000000000E+00   0.0000000000E+00  -0.2111702314E+00  -0.9860848713E+00  -0.2714312326E+00   0.1057584571E+00  -0.2792185399E-01  -0.2191112705E-01
  -0.8353210114E-02  -0.1841921734E+01   0.1006625885E+01  -0.3232091114E-02   0.5411345589E-01   0.6625884535E-02   0.0000000000E+00   0.0000000000E+00   0.0000000000E+00  -0.2861305363E+00  -0.1036593201E+01  -0.3515747523E+00   0.3323541400E-02  -0.5938448076E-02  -0.2578660274E-01
  -0.2278771354E+00  -0.2002002463E+01   0.1007300678E+01  -0.4344920364E-02   0.5527569730E-01   0.7300678402E-02   0.0000000000E+00   0.0000000000E+00   0.0000000000E+00  -0.1813870562E+00  -0.9771682860E+00  -0.2134405131E+00   0.9444115904E-01  -0.1986202638E-01  -0.1992424489E-01
  -0.9005682673E-02  -0.2023965356E+01   0.1007315394E+01  -0.3488207673E-02   0.5547142356E-01   0.7315393987E-02   0.0000000000E+00   0.0000000000E+00   0.0000000000E+00  -0.2899476897E+00  -0.1066901235E+01  -0.3220944283E+00   0.2221341142E-02  -0.1007650846E-01  -0.2495680901E-01
  -0.2292473906E+00  -0.2187279992E+01   0.1007960291E+01  -0.4625960576E-02   0.5676001782E-01   0.7960290739E-02   0.0000000000E+00   0.0000000000E+00   0.0000000000E+00  -0.1579240423E+00  -0.9719152210E+00  -0.1651691738E+00   0.8829837548E-01  -0.1219250532E-01  -0.1788477839E-01
  -0.1214511836E-01  -0.2202067462E+01   0.1007983702E+01  -0.3770814355E-02   0.5687823836E-01   0.7983702274E-02   0.0000000000E+00   0.0000000000E+00   0.0000000000E+00  -0.2963342131E+00  -0.1098593331E+01  -0.3010203415E+00  -0.4139054145E-03  -0.1762060043E-01  -0.2139149474E-01
  -0.2302427746E+00  -0.2373616364E+01   0.1008617494E+01  -0.4906580560E-02   0.5830559578E-01   0.8617494473E-02   0.0000000000E+00   0.0000000000E+00   0.0000000000E+00  -0.1274023485E+00  -0.9554965354E+00  -0.1140371680E+00   0.8292635440E-01  -0.3663104591E-02  -0.1422798866E-01
  -0.1347294901E-01  -0.2384431182E+01   0.1008659682E+01  -0.4052092012E-02   0.5838221791E-01   0.8659681507E-02   0.0000000000E+00   0.0000000000E+00   0.0000000000E+00  -0.3028599876E+00  -0.1124760664E+01  -0.2830681808E+00  -0.1006746050E-01  -0.2712403837E-01  -0.1873810654E-01
  -0.2313396372E+00  -0.2560738410E+01   0.1009271199E+01  -0.5182627190E-02   0.5989925032E-01   0.9271198585E-02   0.0000000000E+00   0.0000000000E+00   0.0000000000E+00  -0.1178733841E+00  -0.9572255778E+00  -0.8887221783E-01   0.8103603231E-01   0.4505605607E-02  -0.4624923857E-02
  -0.1472669681E-01  -0.2567975841E+01   0.1009334149E+01  -0.4328777810E-02   0.5994764879E-01   0.9334148761E-02   0.0000000000E+00   0.0000000000E+00   0.0000000000E+00  -0.3401068654E+00  -0.1173775781E+01  -0.2991762823E+00  -0.2788797733E-01  -0.3638937097E-01  -0.6163036890E-02
  -0.2328047191E+00  -0.2748486290E+01   0.1009947685E+01  -0.5424309139E-02   0.6152795996E-01   0.9947685309E-02   0.0000000000E+00   0.0000000000E+00   0.0000000000E+00   0.3655960498E-03  -0.8435823149E+00   0.4520845322E-01   0.6909192063E-01   0.9902113228E-02  -0.2394106044E-01
  -0.1638834541E-01  -0.2752141777E+01   0.1010000170E+01  -0.4581183412E-02   0.6154650291E-01   0.1000017017E-01   0.0000000000E+00   0.0000000000E+00   0.0000000000E+00  -0.2360400081E+00  -0.1066029093E+01  -0.1790939866E+00  -0.4796681800E-01  -0.4559719360E-01  -0.2055985215E-01
  -0.2325300172E+00  -0.2936820441E+01   0.1010857382E+01  -0.5559285215E-02   0.6317955920E-01   0.1085738182E-01   0.0000000000E+00   0.0000000000E+00   0.0000000000E+00  -0.2069011382E+00  -0.1011826497E+01  -0.7629416292E-01   0.5834597677E-01   0.1977517568E-01  -0.4697601959E-01
  -0.1626780412E-01  -0.2936859312E+01   0.1010875018E+01  -0.4847177122E-02   0.6314068787E-01   0.1087501766E-01   0.0000000000E+00   0.0000000000E+00   0.0000000000E+00  -0.4194368025E+00  -0.1208776438E+01  -0.2889222971E+00  -0.6968882369E-01  -0.6088791966E-01  -0.4367648887E-01
  -0.4262405882E+00  -0.1044435359E+01   0.1004344567E+01  -0.4237140226E-02   0.4709627072E-01   0.4344566571E-02   0.0000000000E+00   0.0000000000E+00   0.0000000000E+00   0.1932089299E-01  -0.8871423175E+00  -0.2143285064E+00   0.3493079816E+00  -0.7862754808E-01  -0.1231373347E-01
  -0.4363010696E+00  -0.1223035204E+01   0.1004978634E+01  -0.4389064636E-02   0.4842330587E-01   0.4978634253E-02   0.0000000000E+00   0.0000000000E+00   0.0000000000E+00  -0.1458323635E+00  -0.1015891505E+01  -0.3067889174E+00   0.2910872370E+00  -0.8753949163E-01  -0.2363770768E-01
  -0.4417171121E+00  -0.1408278633E+01   0.1005594598E+01  -0.4557812059E-02   0.4986757655E-01   0.5594598119E-02   0.0000000000E+00   0.0000000000E+00   0.0000000000E+00  -0.1153853175E+00  -0.9714864489E+00  -0.2269339144E+00   0.2447126715E+00  -0.7473503022E-01  -0.1705110658E-01
  -0.4447186762E+00  -0.1596644419E+01   0.1006207771E+01  -0.4758107168E-02   0.5138276104E-01   0.6207771293E-02   0.0000000000E+00   0.0000000000E+00   0.0000000000E+00  -0.1357858568E+00  -0.9842034593E+00  -0.2056417016E+00   0.2060486070E+00  -0.6080210717E-01  -0.1720038687E-01
  -0.4465316989E+00  -0.1786589085E+01   0.1006814349E+01  -0.4984930853E-02   0.5294615500E-01   0.6814349389E-02   0.0000000000E+00   0.0000000000E+00   0.0000000000E+00  -0.1364964717E+00  -0.9818231829E+00  -0.1729229173E+00   0.1748172588E+00  -0.4609972528E-01  -0.1398563958E-01
  -0.4477764844E+00  -0.1977362253E+01   0.1007414015E+01  -0.5229580377E-02   0.5454721660E-01   0.7414015176E-02   0.0000000000E+00   0.0000000000E+00   0.0000000000E+00  -0.1293323352E+00  -0.9768007718E+00  -0.1408180005E+00   0.1525267901E+00  -0.3520086610E-01  -0.1341371835E-01
  -0.4489307537E+00  -0.2168333797E+01   0.1008024896E+01  -0.5502237732E-02   0.5618021266E-01   0.8024896387E-02   0.0000000000E+00   0.0000000000E+00   0.0000000000E+00  -0.1267496851E+00  -0.9774776640E+00  -0.1157195476E+00   0.1361479042E+00  -0.2796370632E-01  -0.1239971538E-01
  -0.4499168423E+00  -0.2359769681E+01   0.1008637335E+01  -0.5781176347E-02   0.5784477888E-01   0.8637335098E-02   0.0000000000E+00   0.0000000000E+00   0.0000000000E+00  -0.1088105314E+00  -0.9640632654E+00  -0.8043922756E-01   0.1197211997E+00  -0.2422224421E-01  -0.1056759408E-01
  -0.4509313658E+00  -0.2551717353E+01   0.1009252775E+01  -0.6058151771E-02   0.5953876689E-01   0.9252774871E-02   0.0000000000E+00   0.0000000000E+00   0.0000000000E+00  -0.1127771675E+00  -0.9733120813E+00  -0.7132302707E-01   0.1076979735E+00  -0.2377952302E-01  -0.1680144095E-02
  -0.4521044480E+00  -0.2744155377E+01   0.1009868100E+01  -0.6298958049E-02   0.6125548253E-01   0.9868100199E-02   0.0000000000E+00   0.0000000000E+00   0.0000000000E+00  -0.1423187981E-01  -0.8764002521E+00   0.3579675002E-01   0.6897082508E-01  -0.2153661093E-01  -0.1293052547E-01
  -0.4520012159E+00  -0.2937017575E+01   0.1010657655E+01  -0.6319971929E-02   0.6298242478E-01   0.1065765525E-01   0.0000000000E+00   0.0000000000E+00   0.0000000000E+00  -0.1321151427E+00  -0.9651114942E+00  -0.2318169960E-01   0.2866443119E-01   0.2732846189E-02  -0.2946502475E-01
  -0.6457645840E+00  -0.9764749910E+00   0.1005041679E+01  -0.5561286964E-02   0.4414237895E-01   0.5041678880E-02   0.0000000000E+00   0.0000000000E+00   0.0000000000E+00  -0.3522548716E+00  -0.1485026534E+01  -0.5170892086E+00   0.3223310086E+00  -0.1163272960E+00  -0.4296807367E-01
  -0.6566717391E+00  -0.1170481821E+01   0.1005614706E+01  -0.5563176105E-02   0.4603800947E-01   0.5614706492E-02   0.0000000000E+00   0.0000000000E+00   0.0000000000E+00  -0.2989126196E+00  -0.1343932194E+01  -0.3833354358E+00   0.2662003180E+00  -0.8509070308E-01  -0.3418945711E-01
  -0.6620823856E+00  -0.1365354477E+01   0.1006089881E+01  -0.5637657632E-02   0.4795271322E-01   0.6089880813E-02   0.0000000000E+00   0.0000000000E+00   0.0000000000E+00  -0.2425282930E+00  -0.1249639558E+01  -0.2958227847E+00   0.2342575450E+00  -0.6046882738E-01  -0.1225105150E-01
  -0.6651048930E+00  -0.1560530050E+01   0.1006556484E+01  -0.5767848952E-02   0.4983628958E-01   0.6556483504E-02   0.0000000000E+00   0.0000000000E+00   0.0000000000E+00  -0.2086135080E+00  -0.1172200249E+01  -0.2334605948E+00   0.2044001381E+00  -0.4273561885E-01  -0.8911329327E-02
  -0.6670717893E+00  -0.1756148773E+01   0.1007027625E+01  -0.5945891347E-02   0.5168287678E-01   0.7027625195E-02   0.0000000000E+00   0.0000000000E+00   0.0000000000E+00  -0.1873270099E+00  -0.1118510074E+01  -0.1922506697E+00   0.1833242481E+00  -0.2633311965E-01  -0.5002237749E-02
  -0.6685427503E+00  -0.1952222386E+01   0.1007514980E+01  -0.6159074311E-02   0.5349727411E-01   0.7514980216E-02   0.0000000000E+00   0.0000000000E+00   0.0000000000E+00  -0.1726030925E+00  -0.1078947897E+01  -0.1620714561E+00   0.1701752077E+00  -0.1138207711E-01  -0.6379653304E-02
  -0.6698166167E+00  -0.2148599489E+01   0.1008035816E+01  -0.6407621668E-02   0.5528869093E-01   0.8035815757E-02   0.0000000000E+00   0.0000000000E+00   0.0000000000E+00  -0.1732298925E+00  -0.1061110344E+01  -0.1473651332E+00   0.1657642993E+00   0.3824626182E-02  -0.8748126117E-02
  -0.6709466972E+00  -0.2345309229E+01   0.1008581669E+01  -0.6674091173E-02   0.5706790116E-01   0.8581668894E-02   0.0000000000E+00   0.0000000000E+00   0.0000000000E+00  -0.1746582674E+00  -0.1050787420E+01  -0.1357446290E+00   0.1662053450E+00   0.1883817969E-01  -0.1059394739E-01
  -0.6720155862E+00  -0.2542393432E+01   0.1009149882E+01  -0.6946781211E-02   0.5884648805E-01   0.9149882433E-02   0.0000000000E+00   0.0000000000E+00   0.0000000000E+00  -0.1896092620E+00  -0.1061385136E+01  -0.1404982698E+00   0.1798240965E+00   0.3284161390E-01  -0.9672441020E-02
  -0.6730532491E+00  -0.2739847757E+01   0.1009724998E+01  -0.7190927084E-02   0.6063237344E-01   0.9724997766E-02   0.0000000000E+00   0.0000000000E+00   0.0000000000E+00  -0.1672263531E+00  -0.1037616436E+01  -0.1120369116E+00   0.1654618569E+00   0.4130226980E-01  -0.1079444782E-01
  -0.6731302397E+00  -0.2937576003E+01   0.1010341078E+01  -0.7153715738E-02   0.6242399704E-01   0.1034107825E-01   0.0000000000E+00   0.0000000000E+00   0.0000000000E+00  -0.1918739678E+00  -0.1054618872E+01  -0.1220064407E+00   0.1484019154E+00   0.7284693279E-01  -0.1259482941E-01
  -0.8778092340E+00  -0.9014758499E+00   0.1005778224E+01  -0.7099277986E-02   0.4130923408E-01   0.5778224034E-02   0.0000000000E+00   0.0000000000E+00   0.0000000000E+00  -0.6072926169E+00  -0.1869353797E+01  -0.6426558111E+00   0.2019358989E+00  -0.6642977555E-01  -0.4766142136E-01
  -0.8825825917E+00  -0.1117719008E+01   0.1006053091E+01  -0.6889687676E-02   0.4388516195E-01   0.6053091472E-02   0.0000000000E+00   0.0000000000E+00   0.0000000000E+00  -0.3061475507E+00  -0.1467800655E+01  -0.3240616039E+00   0.1749822332E+00  -0.3980697546E-01  -0.8957498270E-02
  -0.8850057999E+00  -0.1322899086E+01   0.1006372338E+01  -0.6832746856E-02   0.4621459431E-01   0.6372338183E-02   0.0000000000E+00   0.0000000000E+00   0.0000000000E+00  -0.2449526169E+00  -0.1350908987E+01  -0.2560045526E+00   0.1728815830E+00  -0.3778707444E-01  -0.9301808595E-02
  -0.8868095482E+00  -0.1524696471E+01   0.1006719890E+01  -0.6866833241E-02   0.4839085895E-01   0.6719889802E-02   0.0000000000E+00   0.0000000000E+00   0.0000000000E+00  -0.1807409492E+00  -0.1223561823E+01  -0.1784009014E+00   0.1583919510E+00  -0.2902713641E-01  -0.1839700955E-02
  -0.8884220202E+00  -0.1725863325E+01   0.1007091227E+01  -0.6973632217E-02   0.5045808519E-01   0.7091227349E-02   0.0000000000E+00   0.0000000000E+00   0.0000000000E+00  -0.1507222128E+00  -0.1141495976E+01  -0.1389316546E+00   0.1475764398E+00  -0.2208597935E-01   0.7404639631E-03
  -0.8898839757E+00  -0.1927225271E+01   0.1007478064E+01  -0.7134239659E-02   0.5243475856E-01   0.7478064276E-02   0.0000000000E+00   0.0000000000E+00   0.0000000000E+00  -0.1207604648E+00  -0.1064572864E+01  -0.1028962640E+00   0.1378521544E+00  -0.1513954239E-01   0.1952662439E-02
  -0.8912386820E+00  -0.2128885357E+01   0.1007882262E+01  -0.7340781042E-02   0.5432883303E-01   0.7882262227E-02   0.0000000000E+00   0.0000000000E+00   0.0000000000E+00  -0.9048959522E-01  -0.9916827636E+00  -0.6907215636E-01   0.1317263412E+00  -0.8006829588E-02   0.1328041965E-02
  -0.8925110250E+00  -0.2330819614E+01   0.1008293624E+01  -0.7578804960E-02   0.5614422607E-01   0.8293624054E-02   0.0000000000E+00   0.0000000000E+00   0.0000000000E+00  -0.4737828298E-01  -0.9104462097E+00  -0.2704710483E-01   0.1266035379E+00  -0.5065915465E-03   0.8505686350E-03
  -0.8936789362E+00  -0.2533065497E+01   0.1008712309E+01  -0.7836732155E-02   0.5788737269E-01   0.8712308603E-02   0.0000000000E+00   0.0000000000E+00   0.0000000000E+00   0.9147647216E-02  -0.8232416975E+00   0.2264344279E-01   0.1309660383E+00   0.8295113619E-02  -0.4387331528E-02
  -0.8946811244E+00  -0.2735698049E+01   0.1009145585E+01  -0.8082716353E-02   0.5957192136E-01   0.9145585380E-02   0.0000000000E+00   0.0000000000E+00   0.0000000000E+00   0.5034070181E-01  -0.7620996100E+00   0.5230343141E-01   0.1080956601E+00   0.2147007552E-01  -0.3851393989E-02
  -0.8951648247E+00  -0.2938777982E+01   0.1009528626E+01  -0.8068836714E-02   0.6122201770E-01   0.9528626435E-02   0.0000000000E+00   0.0000000000E+00   0.0000000000E+00   0.1555246968E+00  -0.6672822855E+00   0.1165557568E+00   0.8424167174E-01   0.5435931738E-01  -0.6621710416E-03
  -0.1117401426E+01  -0.2731960564E+01   0.1009159880E+01  -0.8980816394E-02   0.5945655632E-01   0.9159880043E-02   0.0000000000E+00   0.0000000000E+00   0.0000000000E+00  -0.1382736543E+00  -0.9889625799E+00  -0.1086101327E+00   0.2207724542E-01  -0.2780727791E-01   0.8330405598E-02
  -0.1117932904E+01  -0.2938763004E+01   0.1009361158E+01  -0.9060494219E-02   0.6123699638E-01   0.9361157686E-02   0.0000000000E+00   0.0000000000E+00   0.0000000000E+00   0.3047527336E-01  -0.8435535825E+00  -0.2235822466E-01  -0.1847114208E-01  -0.1054119440E-01   0.1755381546E-01
  -0.1340680384E+01  -0.2729544473E+01   0.1009078435E+01  -0.9898684119E-02   0.5934660691E-01   0.9078434541E-02   0.0000000000E+00   0.0000000000E+00   0.0000000000E+00  -0.1193693378E+00  -0.9970006431E+00  -0.7938981275E-01   0.4611222191E-01   0.9949294777E-02   0.7898762060E-02
  -0.1341286972E+01  -0.2938781339E+01   0.1009190355E+01  -0.1012011155E-01   0.6121866074E-01   0.9190355436E-02   0.0000000000E+00   0.0000000000E+00   0.0000000000E+00   0.8897093681E-01  -0.8251838546E+00   0.2352277271E-01   0.3295108451E-01   0.1935740463E-01   0.2043431593E-01
  -0.1564427554E+01  -0.2727972130E+01   0.1008991500E+01  -0.1083368365E-01   0.5943359984E-01   0.8991500242E-02   0.0000000000E+00   0.0000000000E+00   0.0000000000E+00  -0.1911806622E+00  -0.1092906404E+01  -0.1378827521E+00   0.1757657022E-01   0.2470185967E-01   0.7936291410E-02
  -0.1565099421E+01  -0.2938616255E+01   0.1009034773E+01  -0.1122981067E-01   0.6138374457E-01   0.9034772654E-02   0.0000000000E+00   0.0000000000E+00   0.0000000000E+00   0.5514170064E-01  -0.8903510988E+00  -0.1303437865E-01   0.2567121701E-01   0.2993143462E-01   0.2240660201E-01
  -0.1788502685E+01  -0.2726736386E+01   0.1009021469E+01  -0.1178311488E-01   0.5989877352E-01   0.9021469248E-02   0.0000000000E+00   0.0000000000E+00   0.0000000000E+00  -0.5569863385E-01  -0.9967459567E+00   0.2248640234E-01  -0.6268670353E-01  -0.2615830328E-01   0.9364618759E-02
  -0.1789228637E+01  -0.2938034328E+01   0.1009050085E+01  -0.1236935673E-01   0.6196567174E-01   0.9050084617E-02   0.0000000000E+00   0.0000000000E+00   0.0000000000E+00   0.2126721789E+00  -0.7733893904E+00   0.1664753026E+00  -0.6493489201E-01  -0.2827749603E-01   0.2072565057E-01
  -0.2012751326E+01  -0.2725066580E+01   0.1009741582E+01  -0.1275132573E-01   0.6111677952E-01   0.9741582405E-02   0.0000000000E+00   0.0000000000E+00   0.0000000000E+00  -0.5125754658E+00  -0.1592720535E+01  -0.3080956590E+00  -0.1282335526E+00  -0.8525077266E-01   0.9556653259E-02
  -0.2013524972E+01  -0.2936376037E+01   0.1009784887E+01  -0.1352497226E-01   0.6362396270E-01   0.9784887401E-02   0.0000000000E+00   0.0000000000E+00   0.0000000000E+00  -0.2606713763E+00  -0.1385754680E+01  -0.1771039701E+00  -0.1468377476E+00  -0.8878706385E-01   0.2786123667E-01
  -0.1116389807E+01  -0.2525643918E+01   0.1008804245E+01  -0.8734877031E-02   0.5761781241E-01   0.8804245426E-02   0.0000000000E+00   0.0000000000E+00   0.0000000000E+00  -0.1116573586E+00  -0.9870928758E+00  -0.6068511689E-01   0.5651526551E-01  -0.2843575384E-01  -0.4402168160E-02
  -0.1339761049E+01  -0.2520720483E+01   0.1008747096E+01  -0.9650258624E-02   0.5741810731E-01   0.8747096299E-02   0.0000000000E+00   0.0000000000E+00   0.0000000000E+00  -0.9072303899E-01  -0.9914622125E+00  -0.2558357178E-01   0.5216820125E-01   0.1117898066E-01  -0.7579253407E-02
  -0.1563689994E+01  -0.2517647821E+01   0.1008677219E+01  -0.1058177439E-01   0.5742303945E-01   0.8677219487E-02   0.0000000000E+00   0.0000000000E+00   0.0000000000E+00  -0.1477007462E+00  -0.1072759697E+01  -0.6780085871E-01   0.4513277521E-02   0.2079242120E-01  -0.1027956347E-01
  -0.1788000781E+01  -0.2515687073E+01   0.1008721895E+01  -0.1152869082E-01   0.5776802653E-01   0.8721894625E-02   0.0000000000E+00   0.0000000000E+00   0.0000000000E+00  -0.4542831445E-01  -0.1011503609E+01   0.6154039820E-01  -0.6663821554E-01  -0.2454714619E-01  -0.5913200890E-02
  -0.2012493263E+01  -0.2513932502E+01   0.1009356710E+01  -0.1249326263E-01   0.5856319750E-01   0.9356710315E-02   0.0000000000E+00   0.0000000000E+00   0.0000000000E+00  -0.4230956978E+00  -0.1514660483E+01  -0.2019032292E+00  -0.1176214573E+00  -0.7557521570E-01  -0.2188450750E-01
  -0.1115191170E+01  -0.2319688056E+01   0.1008393216E+01  -0.8503619785E-02   0.5570915407E-01   0.8393216247E-02   0.0000000000E+00   0.0000000000E+00   0.0000000000E+00  -0.1047677984E+00  -0.1014025084E+01  -0.4974431037E-01   0.6745590773E-01  -0.2443796673E-01  -0.1321345195E-02
  -0.1338701305E+01  -0.2312210155E+01   0.1008349424E+01  -0.9453234973E-02   0.5541269454E-01   0.8349424342E-02   0.0000000000E+00   0.0000000000E+00   0.0000000000E+00  -0.1040006047E+00  -0.1041949962E+01  -0.3481658036E-01   0.4984104559E-01   0.1065340165E-01  -0.1792902962E-02
  -0.1562901905E+01  -0.2307579454E+01   0.1008278108E+01  -0.1042418458E-01   0.5533391600E-01   0.8278107791E-02   0.0000000000E+00   0.0000000000E+00   0.0000000000E+00  -0.1381661210E+00  -0.1101001798E+01  -0.5639077182E-01   0.3051104423E-02   0.1382311220E-01  -0.3125874949E-02
  -0.1787561921E+01  -0.2304858621E+01   0.1008332636E+01  -0.1141360101E-01   0.5555015912E-01   0.8332636488E-02   0.0000000000E+00   0.0000000000E+00   0.0000000000E+00  -0.8043266737E-01  -0.1086570300E+01   0.2976611854E-01  -0.4469830730E-01  -0.2152422632E-01   0.1003978750E-02
  -0.2012420567E+01  -0.2302915847E+01   0.1008792501E+01  -0.1242056733E-01   0.5598923254E-01   0.8792501121E-02   0.0000000000E+00   0.0000000000E+00   0.0000000000E+00  -0.3451220682E+00  -0.1450944406E+01  -0.1454563005E+00  -0.7090053571E-01  -0.5485905888E-01  -0.2283688821E-01
  -0.1113895714E+01  -0.2114002585E+01   0.1007979434E+01  -0.8308704274E-02   0.5372512467E-01   0.7979433777E-02   0.0000000000E+00   0.0000000000E+00   0.0000000000E+00  -0.8445449036E-01  -0.1034588678E+01  -0.3242597938E-01   0.8046646793E-01  -0.2011442448E-01   0.2834880673E-02
  -0.1337571168E+01  -0.2103936611E+01   0.1007937194E+01  -0.9309558232E-02   0.5332475936E-01   0.7937193687E-02   0.0000000000E+00   0.0000000000E+00   0.0000000000E+00  -0.9726065832E-01  -0.1078137237E+01  -0.3257536261E-01   0.4963837774E-01   0.1010678487E-01   0.2016292426E-02
  -0.1562089840E+01  -0.2097708831E+01   0.1007854224E+01  -0.1033692001E-01   0.5316411902E-01   0.7854223997E-02   0.0000000000E+00   0.0000000000E+00   0.0000000000E+00  -0.1101843376E+00  -0.1115350189E+01  -0.3627837657E-01   0.3846122223E-02   0.8630648806E-02   0.1120383765E-02
  -0.1787159728E+01  -0.2094203831E+01   0.1007894184E+01  -0.1138548797E-01   0.5324994911E-01   0.7894184084E-02   0.0000000000E+00   0.0000000000E+00   0.0000000000E+00  -0.8664740937E-01  -0.1133719035E+01   0.1374390441E-01  -0.2790722593E-01  -0.1773683630E-01   0.2451446121E-02
  -0.2012450901E+01  -0.2091967700E+01   0.1008183517E+01  -0.1245090074E-01   0.5341493964E-01   0.8183516688E-02   0.0000000000E+00   0.0000000000E+00   0.0000000000E+00  -0.2643669909E+00  -0.1386056645E+01  -0.9831486117E-01  -0.4002597161E-01  -0.3711986203E-01  -0.1666680465E-01
  -0.1112549975E+01  -0.1908550407E+01   0.1007581722E+01  -0.8157684606E-02   0.5165729268E-01   0.7581722186E-02   0.0000000000E+00   0.0000000000E+00   0.0000000000E+00  -0.6000747482E-01  -0.1056642798E+01  -0.1377712960E-01   0.8955851160E-01  -0.1647751975E-01   0.7360269269E-02
  -0.1336426222E+01  -0.1895860400E+01   0.1007525514E+01  -0.9220202279E-02   0.5115226016E-01   0.7525513726E-02   0.0000000000E+00   0.0000000000E+00   0.0000000000E+00  -0.7980964408E-01  -0.1106088472E+01  -0.2393204102E-01   0.4750169036E-01   0.1089183404E-01   0.5059061187E-02
  -0.1561299040E+01  -0.1887999806E+01   0.1007421436E+01  -0.1031167964E-01   0.5091616353E-01   0.7421435751E-02   0.0000000000E+00   0.0000000000E+00   0.0000000000E+00  -0.8513754669E-01  -0.1132740631E+01  -0.2367563839E-01   0.4560445480E-02   0.6509175858E-02   0.3905068870E-02
  -0.1786813160E+01  -0.1883681375E+01   0.1007423651E+01  -0.1142443955E-01   0.5088238469E-01   0.7423651317E-02   0.0000000000E+00   0.0000000000E+00   0.0000000000E+00  -0.8097218572E-01  -0.1164678424E+01   0.2225893274E-02  -0.1458902743E-01  -0.1353547939E-01   0.2987432226E-02
  -0.2012552027E+01  -0.1881060782E+01   0.1007578153E+01  -0.1255202727E-01   0.5084388756E-01   0.7578152588E-02   0.0000000000E+00   0.0000000000E+00   0.0000000000E+00  -0.2017791870E+00  -0.1340139983E+01  -0.7136261804E-01  -0.1778733743E-01  -0.2552923829E-01  -0.1048923473E-01
  -0.1111225883E+01  -0.1703327170E+01   0.1007210515E+01  -0.8062643246E-02   0.4949654005E-01   0.7210514754E-02   0.0000000000E+00   0.0000000000E+00   0.0000000000E+00  -0.3580912290E-01  -0.1083636024E+01   0.4094330700E-02   0.9560276557E-01  -0.1310599470E-01   0.9409606538E-02
  -0.1335415767E+01  -0.1687957727E+01   0.1007120614E+01  -0.9194656593E-02   0.4889504316E-01   0.7120613992E-02   0.0000000000E+00   0.0000000000E+00   0.0000000000E+00  -0.5508531843E-01  -0.1127602762E+01  -0.1065357473E-01   0.4155480049E-01   0.1372983923E-01   0.5364824216E-02
  -0.1560705015E+01  -0.1678426456E+01   0.1006984346E+01  -0.1035506525E-01   0.4859583419E-01   0.6984346079E-02   0.0000000000E+00   0.0000000000E+00   0.0000000000E+00  -0.6228806531E-01  -0.1150581669E+01  -0.1650912529E-01   0.1138097593E-02   0.6860845160E-02   0.3802776687E-02
  -0.1786643446E+01  -0.1673262364E+01   0.1006932549E+01  -0.1153367558E-01   0.4846441565E-01   0.6932548755E-02   0.0000000000E+00   0.0000000000E+00   0.0000000000E+00  -0.6317936390E-01  -0.1178322933E+01  -0.2290966440E-02  -0.9057645542E-02  -0.9643453905E-02   0.1608920278E-02
  -0.2012723239E+01  -0.1670193295E+01   0.1006988054E+01  -0.1272323870E-01   0.4827584482E-01   0.6988054402E-02   0.0000000000E+00   0.0000000000E+00   0.0000000000E+00  -0.1523467156E+00  -0.1307164495E+01  -0.5734228402E-01  -0.6875733746E-02  -0.1975714893E-01  -0.7255318741E-02
  -0.1110192637E+01  -0.1498132144E+01   0.1006860051E+01  -0.8037427045E-02   0.4723104634E-01   0.6860050975E-02   0.0000000000E+00   0.0000000000E+00   0.0000000000E+00  -0.1082979278E-01  -0.1114809487E+01   0.2064282835E-01   0.9666509590E-01  -0.9321509715E-02   0.9395087261E-02
  -0.1335013402E+01  -0.1480047129E+01   0.1006717969E+01  -0.9249941926E-02   0.4655228117E-01   0.6717969266E-02   0.0000000000E+00   0.0000000000E+00   0.0000000000E+00  -0.2543002038E-01  -0.1144603906E+01   0.4006560804E-02   0.2970653021E-01   0.1799115359E-01   0.2640778439E-02
  -0.1560773647E+01  -0.1468868883E+01   0.1006542213E+01  -0.1048496745E-01   0.4620918683E-01   0.6542212984E-02   0.0000000000E+00   0.0000000000E+00   0.0000000000E+00  -0.4337356696E-01  -0.1170400779E+01  -0.1687959739E-01  -0.8289790434E-02   0.7886885586E-02   0.1159200764E-02
  -0.1786929560E+01  -0.1462872529E+01   0.1006428756E+01  -0.1173039050E-01   0.4601023111E-01   0.6428756236E-02   0.0000000000E+00   0.0000000000E+00   0.0000000000E+00  -0.3903543424E-01  -0.1181302888E+01  -0.4661306661E-02  -0.1173029419E-01  -0.6694161985E-02  -0.1008102138E-02
  -0.2012980282E+01  -0.1459363981E+01   0.1006407808E+01  -0.1298028199E-01   0.4571254914E-01   0.6407808171E-02   0.0000000000E+00   0.0000000000E+00   0.0000000000E+00  -0.1120116087E+00  -0.1281902163E+01  -0.5323921407E-01  -0.5116031695E-02  -0.1807140007E-01  -0.7806263372E-02
  -0.1110082200E+01  -0.1292034128E+01   0.1006523071E+01  -0.8104370449E-02   0.4484155191E-01   0.6523070851E-02   0.0000000000E+00   0.0000000000E+00   0.0000000000E+00   0.1060324442E-01  -0.1152048860E+01   0.3151349737E-01   0.9194503249E-01  -0.3612643515E-02  -0.4048237619E-03
  -0.1336122497E+01  -0.1271449011E+01   0.1006310092E+01  -0.9410366540E-02   0.4411871937E-01   0.6310091900E-02   0.0000000000E+00   0.0000000000E+00   0.0000000000E+00  -0.4995081206E-02  -0.1170420850E+01   0.4972529628E-02   0.9447772220E-02   0.2229789614E-01  -0.4210697430E-02
  -0.1562269068E+01  -0.1258922968E+01   0.1006093637E+01  -0.1072582840E-01   0.4375907237E-01   0.6093637396E-02   0.0000000000E+00   0.0000000000E+00   0.0000000000E+00  -0.2424103359E-01  -0.1188036097E+01  -0.2115227454E-01  -0.2551244216E-01   0.7585377597E-02  -0.3131557052E-02
  -0.1788082357E+01  -0.1252279169E+01   0.1005918556E+01  -0.1203774728E-01   0.4352867110E-01   0.5918556419E-02   0.0000000000E+00   0.0000000000E+00   0.0000000000E+00  -0.1207238096E-01  -0.1178364785E+01  -0.7955915028E-02  -0.2339588367E-01  -0.5120640989E-02  -0.4040200442E-02
  -0.2013344469E+01  -0.1248481488E+01   0.1005826826E+01  -0.1334446879E-01   0.4315915193E-01   0.5826825800E-02   0.0000000000E+00   0.0000000000E+00   0.0000000000E+00  -0.7341605951E-01  -0.1255617466E+01  -0.5369971461E-01  -0.1179621359E-01  -0.1843047675E-01  -0.1148687744E-01
  -0.1111801769E+01  -0.1082669649E+01   0.1006168333E+01  -0.8295088723E-02   0.4229626098E-01   0.6168333100E-02   0.0000000000E+00   0.0000000000E+00   0.0000000000E+00   0.3703583179E-01  -0.1184246972E+01   0.4019616933E-01   0.7355189057E-01   0.5015472172E-02  -0.2913699394E-02
  -0.1339948432E+01  -0.1060714421E+01   0.1005891719E+01  -0.9709971809E-02   0.4158240873E-01   0.5891719036E-02   0.0000000000E+00   0.0000000000E+00   0.0000000000E+00   0.2159797980E-01  -0.1188398417E+01   0.7449312999E-02  -0.1817863827E-01   0.2273227622E-01  -0.9067893046E-02
  -0.1566089508E+01  -0.1047798632E+01   0.1005641377E+01  -0.1110624818E-01   0.4124402771E-01   0.5641377460E-02   0.0000000000E+00   0.0000000000E+00   0.0000000000E+00  -0.1234974668E-01  -0.1210796662E+01  -0.3602217079E-01  -0.4753277906E-01   0.4494452745E-02  -0.8818239378E-02
  -0.1790541382E+01  -0.1041037807E+01   0.1005409329E+01  -0.1247880178E-01   0.4102300296E-01   0.5409329036E-02   0.0000000000E+00   0.0000000000E+00   0.0000000000E+00   0.7898302607E-02  -0.1180122839E+01  -0.2079280043E-01  -0.4128280329E-01  -0.5245249221E-02  -0.8671985935E-02
  -0.2013834473E+01  -0.1037273633E+01   0.1005236322E+01  -0.1383447303E-01   0.4062367654E-01   0.5236322216E-02   0.0000000000E+00   0.0000000000E+00   0.0000000000E+00  -0.3798164255E-01  -0.1228251246E+01  -0.6144851243E-01  -0.2486122640E-01  -0.1881653274E-01  -0.1911248598E-01
  -0.1116920265E+01  -0.8658086919E+00   0.1005820135E+01  -0.8650574525E-02   0.3954807313E-01   0.5820135319E-02   0.0000000000E+00   0.0000000000E+00   0.0000000000E+00   0.5455224919E-01  -0.1208412823E+01   0.4851069910E-01   0.6183515545E-01   0.2326927804E-01  -0.4454354363E-01
  -0.1348033314E+01  -0.8459176523E+00   0.1005464277E+01  -0.1016629370E-01   0.3892700867E-01   0.5464277340E-02   0.0000000000E+00   0.0000000000E+00   0.0000000000E+00  -0.1689958771E-01  -0.1270684846E+01  -0.5886835890E-01  -0.4881218073E-01   0.2125062839E-01  -0.3011532121E-01
  -0.1573091233E+01  -0.8345986315E+00   0.1005177175E+01  -0.1163431282E-01   0.3866174752E-01   0.5177175421E-02   0.0000000000E+00   0.0000000000E+00   0.0000000000E+00   0.2370957106E-03  -0.1230230868E+01  -0.5539785718E-01  -0.7487804012E-01   0.1234940658E-02  -0.2010504060E-01
  -0.1794647612E+01  -0.8286747394E+00   0.1004897287E+01  -0.1305929181E-01   0.3849416355E-01   0.4897287060E-02   0.0000000000E+00   0.0000000000E+00   0.0000000000E+00   0.3331443733E-01  -0.1175876494E+01  -0.3293114796E-01  -0.6730911563E-01  -0.4762142381E-02  -0.1502798927E-01
  -0.2014456009E+01  -0.8253346857E+00   0.1004623515E+01  -0.1445600949E-01   0.3811685426E-01   0.4623514693E-02   0.0000000000E+00   0.0000000000E+00   0.0000000000E+00   0.2179543020E-01  -0.1172050940E+01  -0.5231367221E-01  -0.4687982388E-01  -0.1462213667E-01  -0.2888698459E-01
  -0.7087006251E+00   0.7226742839E+00   0.1003488270E+01  -0.3847746066E-02   0.1498386586E-01   0.3488270316E-02   0.0000000000E+00   0.0000000000E+00   0.0000000000E+00  -0.1882923505E+00  -0.1371644165E+01  -0.2251710695E+00  -0.3065201701E+00  -0.4215918908E-01  -0.4721622916E-01
  -0.8011970814E+00   0.5210873400E+00   0.1004908081E+01  -0.5950241426E-02   0.1877378604E-01   0.4908081414E-02   0.0000000000E+00   0.0000000000E+00   0.0000000000E+00  -0.2703147426E+00  -0.1621524108E+01  -0.1383062464E+00  -0.6837353580E-01   0.1368330030E+00  -0.1674310809E+00
  -0.6362475409E+00   0.4244840051E+00   0.1006636791E+01  -0.5955482862E-02   0.1799665913E-01   0.6636790697E-02   0.0000000000E+00   0.0000000000E+00   0.0000000000E+00  -0.1397729504E+01  -0.2964461309E+01  -0.1024851611E+01  -0.1889039840E+00  -0.5985679534E-01  -0.4074464189E+00
  -0.5333973167E+00   0.5456000444E+00   0.1004219888E+01  -0.4097163677E-02   0.1424204043E-01   0.4219887521E-02   0.0000000000E+00   0.0000000000E+00   0.0000000000E+00   0.3203857065E-01  -0.1261732049E+01   0.5548258978E-01  -0.3218264108E+00  -0.3044416997E+00  -0.3905447611E+00
  -0.8662691835E+00   0.3475854353E+00   0.1006032785E+01  -0.8141410511E-02   0.2209722531E-01   0.6032785402E-02   0.0000000000E+00   0.0000000000E+00   0.0000000000E+00  -0.2739822684E+00  -0.1725524707E+01  -0.1396834360E-02   0.5135397028E-01   0.1788608367E+00  -0.1413654383E+00
  -0.7066747532E+00   0.2935779038E+00   0.1008154666E+01  -0.7775663191E-02   0.2147480276E-01   0.8154666125E-02   0.0000000000E+00   0.0000000000E+00   0.0000000000E+00  -0.1289160530E+01  -0.2966154581E+01  -0.6944947935E+00  -0.3800010615E-01   0.1693414862E+00  -0.2844211616E+00
  -0.9040520683E+00   0.1835483699E+00   0.1006778325E+01  -0.9727706267E-02   0.2501068387E-01   0.6778325465E-02   0.0000000000E+00   0.0000000000E+00   0.0000000000E+00  -0.1161082194E+00  -0.1534252025E+01   0.2844345241E+00   0.5852444378E-01   0.1890245629E+00  -0.7613128166E-01
  -0.7466865771E+00   0.1602489709E+00   0.1008930599E+01  -0.9059607084E-02   0.2457868190E-01   0.8930599283E-02   0.0000000000E+00   0.0000000000E+00   0.0000000000E+00  -0.1371556683E+01  -0.3077647763E+01  -0.6675505098E+00  -0.4377395597E-02   0.2418505070E+00  -0.1152736163E+00
  -0.1064086470E+01   0.1915159629E+00   0.1005448722E+01  -0.1051285961E-01   0.2546910488E-01   0.5448721977E-02   0.0000000000E+00   0.0000000000E+00   0.0000000000E+00  -0.4853214322E+00  -0.1761989997E+01  -0.2644299328E+00   0.1187558653E+00   0.4340886177E-01  -0.7082092728E-01
  -0.1241835593E+01   0.1986436536E+00   0.1004734006E+01  -0.1142168253E-01   0.2563136758E-01   0.4734006106E-02   0.0000000000E+00   0.0000000000E+00   0.0000000000E+00  -0.5354817076E+00  -0.1747512327E+01  -0.4075258645E+00   0.1358100487E+00  -0.2939799038E-01  -0.3341024766E-01
  -0.1429660857E+01   0.2049717636E+00   0.1004343482E+01  -0.1241200732E-01   0.2578944257E-01   0.4343482448E-02   0.0000000000E+00   0.0000000000E+00   0.0000000000E+00  -0.3583772477E+00  -0.1544900343E+01  -0.2781735150E+00   0.1093926118E+00  -0.3948556431E-01  -0.2924359737E-01
  -0.1622814912E+01   0.2101221455E+00   0.1003981374E+01  -0.1346423213E-01   0.2599064254E-01   0.3981373526E-02   0.0000000000E+00   0.0000000000E+00   0.0000000000E+00  -0.1921576098E+00  -0.1361422009E+01  -0.1542918235E+00   0.8904184340E-01  -0.2937549673E-01  -0.2607459522E-01
  -0.1818123665E+01   0.2120706643E+00   0.1003573056E+01  -0.1456436464E-01   0.2629872232E-01   0.3573056242E-02   0.0000000000E+00   0.0000000000E+00   0.0000000000E+00  -0.1565114354E+00  -0.1300228652E+01  -0.1597387428E+00   0.5392824906E-01   0.7088207708E-03  -0.2162879588E-01
  -0.2015682068E+01   0.2151178446E+00   0.1002928978E+01  -0.1568206813E-01   0.2673492058E-01   0.2928978362E-02   0.0000000000E+00   0.0000000000E+00   0.0000000000E+00   0.6215902488E-02  -0.1073091824E+01  -0.6460960278E-01   0.2663737730E-01   0.2873352169E-01  -0.1072879270E-01
  -0.1036792610E+01   0.3667956025E+00   0.1004691096E+01  -0.9001110330E-02   0.2292669146E-01   0.4691096101E-02   0.0000000000E+00   0.0000000000E+00   0.0000000000E+00  -0.3944446181E+00  -0.1741187020E+01  -0.3250287480E+00   0.1611239364E+00   0.4361342567E-01  -0.8888460424E-01
  -0.1221949049E+01   0.3802803896E+00   0.1004156307E+01  -0.1008099860E-01   0.2323104365E-01   0.4156306744E-02   0.0000000000E+00   0.0000000000E+00   0.0000000000E+00  -0.3953577286E+00  -0.1697854462E+01  -0.3932222357E+00   0.2011218841E+00  -0.4210386342E-01  -0.5203273269E-01
  -0.1415090999E+01   0.3908788124E+00   0.1003838899E+01  -0.1123424871E-01   0.2344139040E-01   0.3838898673E-02   0.0000000000E+00   0.0000000000E+00   0.0000000000E+00  -0.2637815842E+00  -0.1518511497E+01  -0.2833897420E+00   0.1686173951E+00  -0.3893756658E-01  -0.4304516847E-01
  -0.1612825595E+01   0.3992677021E+00   0.1003552325E+01  -0.1242622472E-01   0.2368512611E-01   0.3552325275E-02   0.0000000000E+00   0.0000000000E+00   0.0000000000E+00  -0.1229051782E+00  -0.1347302627E+01  -0.1627322199E+00   0.1405449839E+00  -0.3559330579E-01  -0.3457493733E-01
  -0.1813083737E+01   0.4045225471E+00   0.1003203309E+01  -0.1364907664E-01   0.2405000608E-01   0.3203309305E-02   0.0000000000E+00   0.0000000000E+00   0.0000000000E+00  -0.7218640579E-01  -0.1262118160E+01  -0.1370427747E+00   0.8831944747E-01  -0.8014783225E-02  -0.2875192716E-01
  -0.2014880562E+01   0.4090940664E+00   0.1002642238E+01  -0.1488056193E-01   0.2466279341E-01   0.2642238365E-02   0.0000000000E+00   0.0000000000E+00   0.0000000000E+00   0.5840068335E-01  -0.1072072955E+01  -0.5935923761E-01   0.4262989622E-01   0.1367705052E-01  -0.1098306268E-01
  -0.9953527406E+00   0.5491789898E+00   0.1003885587E+01  -0.7019992580E-02   0.2020278783E-01   0.3885587400E-02   0.0000000000E+00   0.0000000000E+00   0.0000000000E+00   0.3311265107E-01  -0.1350318612E+01  -0.5041121906E-01   0.7662606046E-01   0.4598374113E-01  -0.3664293025E-01
  -0.1194516052E+01   0.5656650602E+00   0.1003534173E+01  -0.8382782215E-02   0.2071684023E-01   0.3534172934E-02   0.0000000000E+00   0.0000000000E+00   0.0000000000E+00  -0.1230610140E+00  -0.1498286876E+01  -0.2538475623E+00   0.1786966553E+00  -0.2580632868E-01  -0.5296492081E-02
  -0.1396314853E+01   0.5782615702E+00   0.1003354613E+01  -0.9753102517E-02   0.2103026318E-01   0.3354613443E-02   0.0000000000E+00   0.0000000000E+00   0.0000000000E+00  -0.7254820129E-01  -0.1385585446E+01  -0.1892269518E+00   0.1673384575E+00  -0.3133377236E-01  -0.5896211271E-02
  -0.1600550411E+01   0.5886786775E+00   0.1003168450E+01  -0.1110553145E-01   0.2133878046E-01   0.3168449979E-02   0.0000000000E+00   0.0000000000E+00   0.0000000000E+00  -0.8367547064E-02  -0.1281483965E+01  -0.1195114586E+00   0.1572889609E+00  -0.2899961250E-01  -0.6586780539E-02
  -0.1806651985E+01   0.5961617061E+00   0.1002901649E+01  -0.1245275503E-01   0.2177296410E-01   0.2901649025E-02   0.0000000000E+00   0.0000000000E+00   0.0000000000E+00   0.4446036378E-01  -0.1186917448E+01  -0.7193993253E-01   0.1092376628E+00  -0.9980810320E-02  -0.6452820518E-02
  -0.2013793891E+01   0.6020548747E+00   0.1002464361E+01  -0.1379389076E-01   0.2253512568E-01   0.2464360961E-02   0.0000000000E+00   0.0000000000E+00   0.0000000000E+00   0.1271118213E+00  -0.1056024486E+01  -0.2224046410E-01   0.6623852015E-01   0.2678746207E-02   0.1388664461E-01
  -0.9512511386E+00   0.7437578439E+00   0.1003554675E+01  -0.5402077604E-02   0.1735055391E-01   0.3554674523E-02   0.0000000000E+00   0.0000000000E+00   0.0000000000E+00   0.7184636396E+00  -0.6185688433E+00   0.6143533544E+00  -0.1117114729E+00   0.4635442059E-01   0.8654676189E-01
  -0.1166016225E+01   0.7553486248E+00   0.1003347861E+01  -0.6907705430E-02   0.1816183481E-01   0.3347860535E-02   0.0000000000E+00   0.0000000000E+00   0.0000000000E+00   0.3841948345E+00  -0.9476382077E+00   0.2591882186E+00   0.7470425369E-01   0.2536899361E-01   0.6978950396E-01
  -0.1376025987E+01   0.7672163136E+00   0.1003198842E+01  -0.8340787203E-02   0.1859341963E-01   0.3198841959E-02   0.0000000000E+00   0.0000000000E+00   0.0000000000E+00   0.2996257468E+00  -0.9967294878E+00   0.1825369043E+00   0.1065677186E+00   0.3206168805E-02   0.4810043607E-01
  -0.1586765524E+01   0.7794017742E+00   0.1003036695E+01  -0.9726763827E-02   0.1896059016E-01   0.3036694976E-02   0.0000000000E+00   0.0000000000E+00   0.0000000000E+00   0.2043856301E+00  -0.1060782953E+01   0.9501057687E-01   0.1275756319E+00  -0.4903218241E-03   0.2958075502E-01
  -0.1799010480E+01   0.7896694592E+00   0.1002808352E+01  -0.1109346040E-01   0.1944655721E-01   0.2808352163E-02   0.0000000000E+00   0.0000000000E+00   0.0000000000E+00   0.1574466838E+00  -0.1074273199E+01   0.4720872220E-01   0.9705877448E-01   0.4317662246E-02   0.2054699293E-01
  -0.2012467671E+01   0.7960083046E+00   0.1002492183E+01  -0.1246767076E-01   0.2032752457E-01   0.2492182930E-02   0.0000000000E+00   0.0000000000E+00   0.0000000000E+00   0.1568912459E+00  -0.1044263540E+01   0.3005009103E-01   0.6737626010E-01   0.5183151338E-02   0.3631121950E-01
  -0.1794387924E+01   0.9845375949E+00   0.1002853115E+01  -0.9849894038E-02   0.1712351389E-01   0.2853114921E-02   0.0000000000E+00   0.0000000000E+00   0.0000000000E+00   0.4745588737E-01  -0.1146083556E+01  -0.1029215062E-01   0.6615583702E-01   0.8704969057E-03   0.2561327330E-01
  -0.2011156182E+01   0.9915229256E+00   0.1002635562E+01  -0.1115618229E-01   0.1806099960E-01   0.2635561560E-02   0.0000000000E+00   0.0000000000E+00   0.0000000000E+00   0.5130627103E-01  -0.1131991914E+01  -0.1421157995E-01   0.4444118258E-01  -0.5026242368E-02   0.3775071404E-01
  -0.1792153641E+01   0.1182026101E+01   0.1002910256E+01  -0.8721160687E-02   0.1481147057E-01   0.2910255988E-02   0.0000000000E+00   0.0000000000E+00   0.0000000000E+00   0.2715563626E-01  -0.1118182623E+01   0.2457152199E-01   0.4636431158E-01   0.3597967791E-02   0.1753523135E-01
  -0.2009929414E+01   0.1188935303E+01   0.1002779665E+01  -0.9929413780E-02   0.1576271258E-01   0.2779665388E-02   0.0000000000E+00   0.0000000000E+00   0.0000000000E+00   0.7530121212E-02  -0.1141428220E+01   0.6436016995E-02   0.2605504653E-01  -0.2233833940E-02   0.2712359147E-01
  -0.1791577825E+01   0.1381391931E+01   0.1002937090E+01  -0.7695924793E-02   0.1253359120E-01   0.2937089988E-02   0.0000000000E+00   0.0000000000E+00   0.0000000000E+00   0.2945207252E-02  -0.1091023062E+01   0.4671658961E-01   0.3273686114E-01   0.5372395562E-02   0.1052542350E-01
  -0.2008803373E+01   0.1387852575E+01   0.1002872715E+01  -0.8803373368E-02   0.1346542518E-01   0.2872715057E-02   0.0000000000E+00   0.0000000000E+00   0.0000000000E+00  -0.2158443598E-01  -0.1128746166E+01   0.3022102053E-01   0.1341338368E-01   0.2623572706E-02   0.1714510765E-01
  -0.1791982403E+01   0.1581957077E+01   0.1002929310E+01  -0.6750453423E-02   0.1031205719E-01   0.2929310392E-02   0.0000000000E+00   0.0000000000E+00   0.0000000000E+00  -0.2591908083E-01  -0.1063521110E+01   0.5606123906E-01   0.2858580658E-01   0.4647365158E-02   0.5050970860E-02
  -0.2007755734E+01   0.1587775374E+01   0.1002917336E+01  -0.7755734394E-02   0.1120104384E-01   0.2917335895E-02   0.0000000000E+00   0.0000000000E+00   0.0000000000E+00  -0.4630313448E-01  -0.1104111403E+01   0.4827665422E-01   0.9769371420E-02   0.6569721079E-02   0.1117018612E-01
  -0.1792899747E+01   0.1783248806E+01   0.1002874430E+01  -0.5851287431E-02   0.8172656117E-02   0.2874429892E-02   0.0000000000E+00   0.0000000000E+00   0.0000000000E+00  -0.7054031244E-01  -0.1043747984E+01   0.4038303657E-01   0.3369789180E-01   0.9464938109E-03  -0.1157074237E-02
  -0.2006753981E+01   0.1788323438E+01   0.1002914336E+01  -0.6753980633E-02   0.9000337734E-02   0.2914336262E-02   0.0000000000E+00   0.0000000000E+00   0.0000000000E+00  -0.9055832632E-01  -0.1090582822E+01   0.3739471075E-01   0.1410666282E-01   0.6816193043E-02   0.6824793285E-02
  -0.1794055709E+01   0.1984993994E+01   0.1002754918E+01  -0.4969368934E-02   0.6148633952E-02   0.2754918479E-02   0.0000000000E+00   0.0000000000E+00   0.0000000000E+00  -0.8256774995E-01  -0.9783510323E+00   0.4717755800E-01   0.4695176250E-01  -0.6315414597E-02  -0.1002883660E-01
  -0.2005766959E+01   0.1989266621E+01   0.1002859282E+01  -0.5766958787E-02   0.6894930624E-02   0.2859282487E-02   0.0000000000E+00   0.0000000000E+00   0.0000000000E+00  -0.9519343931E-01  -0.1026148735E+01   0.5763051488E-01   0.2616410090E-01  -0.5519354861E-05   0.1786759459E-02
  -0.1795293664E+01   0.2187072697E+01   0.1002543472E+01  -0.4083253830E-02   0.4284327018E-02   0.2543471815E-02   0.0000000000E+00   0.0000000000E+00   0.0000000000E+00  -0.2573492871E+00  -0.1057751082E+01  -0.1212853288E+00   0.6706471217E-01  -0.1776636179E-01  -0.2433290623E-01
  -0.2004770865E+01   0.2190499459E+01   0.1002734017E+01  -0.4770864686E-02   0.4921828774E-02   0.2734017308E-02   0.0000000000E+00   0.0000000000E+00   0.0000000000E+00  -0.3382877595E+00  -0.1185627223E+01  -0.1700994408E+00   0.4634304593E-01  -0.1759384162E-01  -0.7811724429E-02
  -0.1796470390E+01   0.2389482753E+01   0.1002204665E+01  -0.3177390060E-02   0.2639312967E-02   0.2204664688E-02   0.0000000000E+00   0.0000000000E+00   0.0000000000E+00   0.1298768407E+00  -0.5466102909E+00   0.2568894105E+00   0.9362737141E-01  -0.3302101208E-01  -0.4767189730E-01
  -0.2003745997E+01   0.2392025590E+01   0.1002499201E+01  -0.3745997041E-02   0.3131270327E-02   0.2499201165E-02   0.0000000000E+00   0.0000000000E+00   0.0000000000E+00   0.1773464493E+00  -0.5596125280E+00   0.3480696900E+00   0.7785440040E-01  -0.4804718076E-01  -0.3000388058E-01
  -0.1797354760E+01   0.2592318262E+01   0.1001691435E+01  -0.2237379853E-02   0.1294342068E-02   0.1691435485E-02   0.0000000000E+00   0.0000000000E+00   0.0000000000E+00  -0.1637626726E+01  -0.2162286163E+01  -0.1538936632E+01   0.1233411558E+00  -0.4973582378E-01  -0.8362251192E-01
  -0.2002671444E+01   0.2593951894E+01   0.1002075655E+01  -0.2671444075E-02   0.1601883969E-02   0.2075654691E-02   0.0000000000E+00   0.0000000000E+00   0.0000000000E+00  -0.2285529224E+01  -0.2884639127E+01  -0.2133235502E+01   0.1193689601E+00  -0.8707631910E-01  -0.7112410110E-01
  -0.1797607458E+01   0.2795751673E+01   0.1000954808E+01  -0.1220977969E-02   0.3608327760E-03   0.9548080342E-03   0.0000000000E+00   0.0000000000E+00   0.0000000000E+00   0.4690222554E+01   0.4403660149E+01   0.4740998220E+01   0.1722016582E+00  -0.5532395320E-01  -0.1329882547E+00
  -0.2001486966E+01   0.2796492885E+01   0.1001314567E+01  -0.1486965934E-02   0.4711845467E-03   0.1314567370E-02   0.0000000000E+00   0.0000000000E+00   0.0000000000E+00   0.6446395324E+01   0.6102037493E+01   0.6545092579E+01   0.1968231971E+00  -0.1058749812E+00  -0.1649991412E+00
  -0.1797227740E+01   0.3000000000E+01   0.1000000000E+01   0.0000000000E+00   0.0000000000E+00   0.0000000000E+00   0.0000000000E+00   0.0000000000E+00   0.0000000000E+00  -0.1882072254E+02  -0.1889638388E+02  -0.1882083610E+02   0.2071691806E+00  -0.4467487523E-04  -0.1629685858E+00
  -0.2000000000E+01   0.3000000000E+01   0.1000000000E+01   0.0000000000E+00   0.0000000000E+00   0.0000000000E+00   0.0000000000E+00   0.0000000000E+00   0.0000000000E+00  -0.2593890041E+02  -0.2604311929E+02  -0.2593902782E+02   0.2552297149E+00  -0.1139263673E-03  -0.2356927293E+00
  -0.1578875291E+01   0.9739020784E+00   0.1003066470E+01  -0.8565650599E-02   0.1658424935E-01   0.3066469759E-02   0.0000000000E+00   0.0000000000E+00   0.0000000000E+00   0.2773717884E-02  -0.1205269258E+01  -0.4520896355E-01   0.8945773423E-01   0.5258087448E-02   0.3116571946E-01
  -0.1575515795E+01   0.1171789317E+01   0.1003067764E+01  -0.7538244639E-02   0.1424088682E-01   0.3067764331E-02   0.0000000000E+00   0.0000000000E+00   0.0000000000E+00   0.1423721478E-01  -0.1132619503E+01   0.1798717690E-01   0.7065821229E-01   0.9010662639E-02   0.1656825286E-01
  -0.1575304992E+01   0.1371960048E+01   0.1003030531E+01  -0.6615171832E-02   0.1195955751E-01   0.3030530897E-02   0.0000000000E+00   0.0000000000E+00   0.0000000000E+00  -0.4896237101E-02  -0.1087887295E+01   0.4021054436E-01   0.5646814429E-01   0.9599628948E-02   0.7934655992E-02
  -0.1576982929E+01   0.1573555442E+01   0.1002955166E+01  -0.5773018538E-02   0.9764761995E-02   0.2955166115E-02   0.0000000000E+00   0.0000000000E+00   0.0000000000E+00  -0.2669836555E-01  -0.1041329153E+01   0.5088096143E-01   0.5176552142E-01   0.6936214648E-02  -0.4209906350E-04
  -0.1579671777E+01   0.1776008328E+01   0.1002833665E+01  -0.4977616894E-02   0.7681448332E-02   0.2833664919E-02   0.0000000000E+00   0.0000000000E+00   0.0000000000E+00  -0.7017595273E-01  -0.1009575192E+01   0.3054720091E-01   0.5627999107E-01   0.2307598415E-02  -0.7589028083E-02
  -0.1582852385E+01   0.1978992004E+01   0.1002655652E+01  -0.4202385190E-02   0.5739474206E-02   0.2655652162E-02   0.0000000000E+00   0.0000000000E+00   0.0000000000E+00  -0.9379887751E-01  -0.9467001265E+00   0.2117316347E-01   0.6811953783E-01  -0.2867093433E-02  -0.1667183237E-01
  -0.1586216329E+01   0.2182352050E+01   0.1002402098E+01  -0.3427859350E-02   0.3976569533E-02   0.2402097878E-02   0.0000000000E+00   0.0000000000E+00   0.0000000000E+00  -0.2847702591E+00  -0.1036302265E+01  -0.1657344097E+00   0.8470391125E-01  -0.7686409131E-02  -0.2896326960E-01
  -0.1589468654E+01   0.2386054430E+01   0.1002051268E+01  -0.2642444254E-02   0.2441319723E-02   0.2051267821E-02   0.0000000000E+00   0.0000000000E+00   0.0000000000E+00   0.3214322328E-01  -0.5944672885E+00   0.1441356942E+00   0.1035194995E+00  -0.1119498441E-01  -0.4775697863E-01
  -0.1592150953E+01   0.2590156628E+01   0.1001568391E+01  -0.1836562835E-02   0.1197888202E-02   0.1568390823E-02   0.0000000000E+00   0.0000000000E+00   0.0000000000E+00  -0.1676970074E+01  -0.2157581276E+01  -0.1586114167E+01   0.1206671911E+00  -0.1419566253E-01  -0.7478969330E-01
  -0.1593690073E+01   0.2794765295E+01   0.1000906843E+01  -0.9836331814E-03   0.3364645685E-03   0.9068425777E-03   0.0000000000E+00   0.0000000000E+00   0.0000000000E+00   0.4175804941E+01   0.3915833905E+01   0.4229741379E+01   0.1466264352E+00  -0.1666576537E-01  -0.1219540566E+00
  -0.1594253180E+01   0.3000000000E+01   0.1000000000E+01   0.0000000000E+00   0.0000000000E+00   0.0000000000E+00   0.0000000000E+00   0.0000000000E+00   0.0000000000E+00  -0.1766083512E+02  -0.1773178244E+02  -0.1766091616E+02   0.1648094771E+00  -0.3223794345E-04  -0.1560673478E+00
  -0.1365123848E+01   0.9625849033E+00   0.1003257021E+01  -0.7288677735E-02   0.1615791534E-01   0.3257020676E-02   0.0000000000E+00   0.0000000000E+00   0.0000000000E+00  -0.1627629526E-01  -0.1231937547E+01  -0.5138835665E-01   0.6113001103E-01   0.1086221417E-01   0.4200613119E-01
  -0.1360881974E+01   0.1161662989E+01   0.1003213619E+01  -0.6369404470E-02   0.1377980928E-01   0.3213618839E-02   0.0000000000E+00   0.0000000000E+00   0.0000000000E+00   0.4053067625E-01  -0.1104839230E+01   0.5353501541E-01   0.4973173887E-01   0.1030215150E-01   0.1662672878E-01
  -0.1361078935E+01   0.1362998953E+01   0.1003128892E+01  -0.5556065283E-02   0.1149343258E-01   0.3128891891E-02   0.0000000000E+00   0.0000000000E+00   0.0000000000E+00   0.1325721252E-01  -0.1056153229E+01   0.6576663376E-01   0.3734796092E-01   0.1127511651E-01   0.7471167622E-02
  -0.1363903885E+01   0.1565733510E+01   0.1003002992E+01  -0.4823214759E-02   0.9321650207E-02   0.3002991876E-02   0.0000000000E+00   0.0000000000E+00   0.0000000000E+00  -0.1239375398E-01  -0.1003211965E+01   0.6935542672E-01   0.3460643510E-01   0.8946793582E-02  -0.3349985962E-02
  -0.1368149962E+01   0.1769340320E+01   0.1002833233E+01  -0.4135812213E-02   0.7285639919E-02   0.2833233297E-02   0.0000000000E+00   0.0000000000E+00   0.0000000000E+00  -0.6643686809E-01  -0.9734025917E+00   0.3521985302E-01   0.3915376824E-01   0.5266881812E-02  -0.1172116339E-01
  -0.1373100992E+01   0.1973504152E+01   0.1002616125E+01  -0.3470412363E-02   0.5410042218E-02   0.2616125085E-02   0.0000000000E+00   0.0000000000E+00   0.0000000000E+00  -0.1053614863E+00  -0.9195251899E+00   0.8257553794E-02   0.4959243538E-01   0.1180200863E-02  -0.2098663221E-01
  -0.1378310908E+01   0.2178064434E+01   0.1002335710E+01  -0.2809158284E-02   0.3725854478E-02   0.2335709615E-02   0.0000000000E+00   0.0000000000E+00   0.0000000000E+00  -0.2956993617E+00  -0.1005155116E+01  -0.1792143286E+00   0.6357967466E-01  -0.2980794786E-02  -0.3245649013E-01
  -0.1383322689E+01   0.2382971931E+01   0.1001975370E+01  -0.2145029446E-02   0.2273731361E-02   0.1975369842E-02   0.0000000000E+00   0.0000000000E+00   0.0000000000E+00  -0.2122121975E-01  -0.6058518164E+00   0.8895208941E-01   0.7908958113E-01  -0.6905661289E-02  -0.4928638700E-01
  -0.1387483171E+01   0.2588247430E+01   0.1001500943E+01  -0.1472171335E-02   0.1108780236E-02   0.1500942666E-02   0.0000000000E+00   0.0000000000E+00   0.0000000000E+00  -0.1596933887E+01  -0.2039250296E+01  -0.1505673992E+01   0.9366927426E-01  -0.1203141611E-01  -0.7328008987E-01
  -0.1390085406E+01   0.2793920601E+01   0.1000866134E+01  -0.7761161041E-03   0.3095513339E-03   0.8661339924E-03   0.0000000000E+00   0.0000000000E+00   0.0000000000E+00   0.3695244863E+01   0.3460088991E+01   0.3752249160E+01   0.1142976806E+00  -0.1783648359E-01  -0.1164745373E+00
  -0.1391371730E+01   0.3000000000E+01   0.1000000000E+01   0.0000000000E+00   0.0000000000E+00   0.0000000000E+00   0.0000000000E+00   0.0000000000E+00   0.0000000000E+00  -0.1612061569E+02  -0.1618529476E+02  -0.1612064931E+02   0.1286704313E+00  -0.2392429436E-04  -0.1484470701E+00
  -0.1153337397E+01   0.9545427982E+00   0.1003471292E+01  -0.6014026572E-02   0.1561747224E-01   0.3471291957E-02   0.0000000000E+00   0.0000000000E+00   0.0000000000E+00  -0.6673184858E-01  -0.1287283257E+01  -0.7693431165E-01   0.1593794479E-01   0.3938337354E-01   0.5335246079E-01
  -0.1149408985E+01   0.1156235147E+01   0.1003349826E+01  -0.5210564619E-02   0.1318876656E-01   0.3349826274E-02   0.0000000000E+00   0.0000000000E+00   0.0000000000E+00   0.6105629925E-01  -0.1076515529E+01   0.8920744520E-01   0.8443985189E-02   0.2647931742E-01   0.1122131462E-01
  -0.1150517783E+01   0.1358979173E+01   0.1003211009E+01  -0.4520263174E-02   0.1090378284E-01   0.3211008616E-02   0.0000000000E+00   0.0000000000E+00   0.0000000000E+00   0.4831441305E-02  -0.1044311423E+01   0.6948260648E-01  -0.6980933381E-02   0.1647635415E-01   0.5467707444E-02
  -0.1154446480E+01   0.1562522235E+01   0.1003024000E+01  -0.3904579744E-02   0.8772914708E-02   0.3024000129E-02   0.0000000000E+00   0.0000000000E+00   0.0000000000E+00  -0.2510918132E-01  -0.9847937782E+00   0.6324996188E-01  -0.5240191285E-02   0.4394027511E-02  -0.9660577186E-02
  -0.1159909068E+01   0.1766724054E+01   0.1002801587E+01  -0.3330168043E-02   0.6807274417E-02   0.2801587276E-02   0.0000000000E+00   0.0000000000E+00   0.0000000000E+00  -0.9040213394E-01  -0.9572435639E+00   0.1337105440E-01   0.4250005305E-02  -0.4684033241E-02  -0.1726819517E-01
  -0.1166144592E+01   0.1971423157E+01   0.1002545291E+01  -0.2777682459E-02   0.5022296729E-02   0.2545290828E-02   0.0000000000E+00   0.0000000000E+00   0.0000000000E+00  -0.1373717052E+00  -0.9051581678E+00  -0.2467963375E-01   0.2036782576E-01  -0.1044275533E-01  -0.2601664139E-01
  -0.1172623428E+01   0.2176504440E+01   0.1002240719E+01  -0.2230437844E-02   0.3439489574E-02   0.2240719111E-02   0.0000000000E+00   0.0000000000E+00   0.0000000000E+00  -0.3222242481E+00  -0.9828618752E+00  -0.2084610985E+00   0.3895900819E-01  -0.1345161643E-01  -0.3573813172E-01
  -0.1178786334E+01   0.2381922376E+01   0.1001876242E+01  -0.1687104403E-02   0.2089155789E-02   0.1876242063E-02   0.0000000000E+00   0.0000000000E+00   0.0000000000E+00  -0.8494521573E-01  -0.6226624196E+00   0.2286338489E-01   0.5706424185E-01  -0.1382253282E-01  -0.4989743437E-01
  -0.1183908509E+01   0.2587668500E+01   0.1001417779E+01  -0.1144218899E-02   0.1015270023E-02   0.1417778921E-02   0.0000000000E+00   0.0000000000E+00   0.0000000000E+00  -0.1545567227E+01  -0.1947591064E+01  -0.1454773889E+01   0.7201495122E-01  -0.1341473648E-01  -0.7023728358E-01
  -0.1187258683E+01   0.2793718480E+01   0.1000819584E+01  -0.5958926845E-03   0.2831404200E-03   0.8195836163E-03   0.0000000000E+00   0.0000000000E+00   0.0000000000E+00   0.3250378879E+01   0.3039254160E+01   0.3309416478E+01   0.8808148616E-01  -0.1366347359E-01  -0.1099101195E+00
  -0.1189031000E+01   0.3000000000E+01   0.1000000000E+01   0.0000000000E+00   0.0000000000E+00   0.0000000000E+00   0.0000000000E+00   0.0000000000E+00   0.0000000000E+00  -0.1475314487E+02  -0.1481227827E+02  -0.1475314614E+02   0.9819600796E-01   0.1390569514E-04  -0.1405846737E+00
  -0.9421981543E+00   0.9536196425E+00   0.1003647007E+01  -0.4749056279E-02   0.1462994354E-01   0.3647007444E-02   0.0000000000E+00   0.0000000000E+00   0.0000000000E+00  -0.1546574632E+00  -0.1350138622E+01  -0.1256023491E+00  -0.1557509128E+00  -0.1051525467E-01   0.5518566268E-01
  -0.9418085008E+00   0.1159779505E+01   0.1003380941E+01  -0.4068055809E-02   0.1217623510E-01   0.3380941447E-02   0.0000000000E+00   0.0000000000E+00   0.0000000000E+00   0.1030385371E-01  -0.1106823548E+01   0.4697740661E-01  -0.1110251473E+00  -0.3473933314E-01  -0.3566283848E-02
  -0.9449885128E+00   0.1363653714E+01   0.1003150872E+01  -0.3520154773E-02   0.9957133501E-02   0.3150871545E-02   0.0000000000E+00   0.0000000000E+00   0.0000000000E+00  -0.6603733840E-01  -0.1073096008E+01   0.2002887837E-03  -0.1029628366E+00  -0.4167870787E-01  -0.3458761095E-02
  -0.9500467246E+00   0.1567076017E+01   0.1002888963E+01  -0.3028637626E-02   0.7946067137E-02   0.2888963376E-02   0.0000000000E+00   0.0000000000E+00   0.0000000000E+00  -0.7468781244E-01  -0.9792220167E+00   0.6505312152E-02  -0.7153537089E-01  -0.4269404166E-01  -0.1882497955E-01
  -0.9562329188E+00   0.1770783359E+01   0.1002625567E+01  -0.2571178806E-02   0.6128718892E-02   0.2625567318E-02   0.0000000000E+00   0.0000000000E+00   0.0000000000E+00  -0.1257030413E+00  -0.9290897310E+00  -0.3298974871E-01  -0.4334263496E-01  -0.3945533950E-01  -0.2157090963E-01
  -0.9630274964E+00   0.1974886232E+01   0.1002355890E+01  -0.2132792354E-02   0.4502111514E-02   0.2355890076E-02   0.0000000000E+00   0.0000000000E+00   0.0000000000E+00  -0.1658594069E+00  -0.8678395561E+00  -0.6509582584E-01  -0.1363227206E-01  -0.3421380496E-01  -0.2771882647E-01
  -0.9699457022E+00   0.2179327984E+01   0.1002057274E+01  -0.1697812179E-02   0.3073953866E-02   0.2057273688E-02   0.0000000000E+00   0.0000000000E+00   0.0000000000E+00  -0.3341803001E+00  -0.9318843027E+00  -0.2315728781E+00   0.1268903146E-01  -0.2846804223E-01  -0.3493649113E-01
  -0.9764586903E+00   0.2384073855E+01   0.1001716849E+01  -0.1272044280E-02   0.1863365333E-02   0.1716848565E-02   0.0000000000E+00   0.0000000000E+00   0.0000000000E+00  -0.1308892659E+00  -0.6131367328E+00  -0.3169408016E-01   0.3430850695E-01  -0.2226914849E-01  -0.4673605868E-01
  -0.9819133912E+00   0.2589117541E+01   0.1001296308E+01  -0.8529461811E-03   0.9045711112E-03   0.1296307583E-02   0.0000000000E+00   0.0000000000E+00   0.0000000000E+00  -0.1447818429E+01  -0.1805697000E+01  -0.1362415241E+01   0.5026058262E-01  -0.1720220978E-01  -0.6480454302E-01
  -0.9856459822E+00   0.2794446565E+01   0.1000750422E+01  -0.4406301794E-03   0.2523450428E-03   0.7504223879E-03   0.0000000000E+00   0.0000000000E+00   0.0000000000E+00   0.2820835540E+01   0.2634340758E+01   0.2877870350E+01   0.6434993624E-01  -0.1424577185E-01  -0.1009729849E+00
  -0.9877309200E+00   0.3000000000E+01   0.1000000000E+01   0.0000000000E+00   0.0000000000E+00   0.0000000000E+00   0.0000000000E+00   0.0000000000E+00   0.0000000000E+00  -0.1321114479E+02  -0.1326407450E+02  -0.1321113442E+02   0.7267249834E-01   0.2025364240E-04  -0.1292838050E+00
  -0.7271172001E+00   0.9611840400E+00   0.1003012322E+01  -0.3489037078E-02   0.1243992198E-01   0.3012321736E-02   0.0000000000E+00   0.0000000000E+00   0.0000000000E+00  -0.8727325368E+00  -0.1990396708E+01  -0.9278401343E+00  -0.3006700300E+00  -0.1283389613E+00   0.3875905476E-01
  -0.7352287762E+00   0.1170700596E+01   0.1002754184E+01  -0.2962290208E-02   0.1036505624E-01   0.2754183921E-02   0.0000000000E+00   0.0000000000E+00   0.0000000000E+00  -0.4918391219E+00  -0.1465983742E+01  -0.5092983252E+00  -0.2017965527E+00  -0.9420799992E-01   0.1579382216E-01
  -0.7415339166E+00   0.1373609527E+01   0.1002576468E+01  -0.2576153636E-02   0.8514147432E-02   0.2576467921E-02   0.0000000000E+00   0.0000000000E+00   0.0000000000E+00  -0.4313397824E+00  -0.1313615276E+01  -0.4206636280E+00  -0.1672996437E+00  -0.8060649800E-01   0.1275377115E-01
  -0.7477842416E+00   0.1575633779E+01   0.1002401046E+01  -0.2215191574E-02   0.6830708774E-02   0.2401045562E-02   0.0000000000E+00   0.0000000000E+00   0.0000000000E+00  -0.3646965772E+00  -0.1151286227E+01  -0.3261200083E+00  -0.1116127661E+00  -0.6518840136E-01   0.8379779277E-03
  -0.7545372953E+00   0.1778111226E+01   0.1002223584E+01  -0.1875888312E-02   0.5294325918E-02   0.2223584399E-02   0.0000000000E+00   0.0000000000E+00   0.0000000000E+00  -0.3637839397E+00  -0.1064488830E+01  -0.3042343958E+00  -0.7163603482E-01  -0.5263882196E-01  -0.5261827353E-02
  -0.7616656763E+00   0.1981026948E+01   0.1002030739E+01  -0.1549695259E-02   0.3905717614E-02   0.2030739492E-02   0.0000000000E+00   0.0000000000E+00   0.0000000000E+00  -0.3660275357E+00  -0.9788021297E+00  -0.2894678227E+00  -0.3444460141E-01  -0.4150796477E-01  -0.1422933988E-01
  -0.7687803106E+00   0.2184207039E+01   0.1001797769E+01  -0.1221855587E-02   0.2677039482E-02   0.1797769240E-02   0.0000000000E+00   0.0000000000E+00   0.0000000000E+00  -0.4908448117E+00  -0.1013389005E+01  -0.4057804370E+00  -0.4947703106E-02  -0.3183642485E-01  -0.2398075929E-01
  -0.7755074131E+00   0.2387619870E+01   0.1001517633E+01  -0.9067280974E-03   0.1628769860E-02   0.1517632554E-02   0.0000000000E+00   0.0000000000E+00   0.0000000000E+00  -0.2902687931E+00  -0.7119947281E+00  -0.2029978322E+00   0.1718962063E-01  -0.2327432239E-01  -0.3725719848E-01
  -0.7813454404E+00   0.2591305162E+01   0.1001154515E+01  -0.6011264038E-03   0.7943123023E-03   0.1154514805E-02   0.0000000000E+00   0.0000000000E+00   0.0000000000E+00  -0.1462266222E+01  -0.1775349250E+01  -0.1384412556E+01   0.3259945511E-01  -0.1634935290E-01  -0.5594916686E-01
  -0.7856767030E+00   0.2795352668E+01   0.1000671274E+01  -0.3094529517E-03   0.2233682862E-03   0.6712736888E-03   0.0000000000E+00   0.0000000000E+00   0.0000000000E+00   0.2355502501E+01   0.2192206289E+01   0.2408634464E+01   0.4440165821E-01  -0.1192618655E-01  -0.8999022190E-01
  -0.7878651620E+00   0.3000000000E+01   0.1000000000E+01   0.0000000000E+00   0.0000000000E+00   0.0000000000E+00   0.0000000000E+00   0.0000000000E+00   0.0000000000E+00  -0.1184641186E+02  -0.1189383133E+02  -0.1184638135E+02   0.5117186164E-01   0.6514671273E-04  -0.1162823561E+00
  -0.5875752664E+00   0.2798747896E+01   0.1000591969E+01  -0.1958103541E-03   0.1918056449E-03   0.5919690834E-03   0.0000000000E+00   0.0000000000E+00   0.0000000000E+00   0.2025374687E+01   0.1883770661E+01   0.2072554499E+01   0.2777469253E-01  -0.9049942677E-02  -0.8117747742E-01
  -0.5894951220E+00   0.3000000000E+01   0.1000000000E+01   0.0000000000E+00   0.0000000000E+00   0.0000000000E+00   0.0000000000E+00   0.0000000000E+00   0.0000000000E+00  -0.1039857797E+02  -0.1044018246E+02  -0.1039854145E+02   0.3279264066E-01   0.1134015650E-03  -0.1042905767E+00
  -0.3903999624E+00   0.2802267568E+01   0.1000522320E+01  -0.9915240583E-04   0.1676284735E-03   0.5223196762E-03   0.0000000000E+00   0.0000000000E+00   0.0000000000E+00   0.1697525060E+01   0.1572761243E+01   0.1739192916E+01   0.1395844391E-01  -0.7516238297E-02  -0.7282982873E-01
  -0.3923090400E+00   0.3000000000E+01   0.1000000000E+01   0.0000000000E+00   0.0000000000E+00   0.0000000000E+00   0.0000000000E+00   0.0000000000E+00   0.0000000000E+00  -0.9321975656E+01  -0.9359372581E+01  -0.9321992767E+01   0.1667642718E-01   0.5556696875E-04  -0.9365858901E-01
  -0.1899267167E+00   0.2803765659E+01   0.1000467123E+01  -0.1314574720E-04   0.1505689960E-03   0.4671231161E-03   0.0000000000E+00   0.0000000000E+00   0.0000000000E+00   0.1470784274E+01   0.1357978781E+01   0.1507516747E+01   0.1633387454E-02  -0.4701399644E-02  -0.6577471900E-01
  -0.1922578220E+00   0.3000000000E+01   0.1000000000E+01   0.0000000000E+00   0.0000000000E+00   0.0000000000E+00   0.0000000000E+00   0.0000000000E+00   0.0000000000E+00  -0.8491833256E+01  -0.8525821335E+01  -0.8491809638E+01   0.1611976138E-02   0.1781070730E-04  -0.8415090281E-01
   0.1407663674E-01   0.2803296984E+01   0.1000446752E+01   0.6813674495E-04   0.1444235621E-03   0.4467515787E-03   0.0000000000E+00   0.0000000000E+00   0.0000000000E+00   0.1382300262E+01   0.1274483299E+01   0.1417263872E+01  -0.8875266738E-02   0.2201513553E-02  -0.6255125261E-01
   0.1392890100E-01   0.3000000000E+01   0.1000000000E+01   0.0000000000E+00   0.0000000000E+00   0.0000000000E+00   0.0000000000E+00   0.0000000000E+00   0.0000000000E+00  -0.8140597296E+01  -0.8173128082E+01  -0.8140548961E+01  -0.1285650920E-01  -0.4230866735E-04  -0.8035664580E-01
  -0.5839736316E+00   0.2597941995E+01   0.1001016707E+01  -0.3840185552E-03   0.6791347677E-03   0.1016706751E-02   0.0000000000E+00   0.0000000000E+00   0.0000000000E+00  -0.1313192183E+01  -0.1582929156E+01  -0.1243948261E+01   0.1889481862E-01  -0.1363427229E-01  -0.5057763763E-01
  -0.3875997484E+00   0.2604564503E+01   0.1000894664E+01  -0.2021613944E-03   0.5880129622E-03   0.8946638410E-03   0.0000000000E+00   0.0000000000E+00   0.0000000000E+00  -0.1273566736E+01  -0.1507471655E+01  -0.1211930713E+01   0.8605650091E-02  -0.1195767769E-01  -0.4383145036E-01
  -0.1879591087E+00   0.2607266265E+01   0.1000802256E+01  -0.4443867728E-04   0.5262651538E-03   0.8022563604E-03   0.0000000000E+00   0.0000000000E+00   0.0000000000E+00  -0.1246130845E+01  -0.1455463769E+01  -0.1191178925E+01   0.3097312702E-03  -0.7832312716E-02  -0.3819630593E-01
   0.1468881090E-01   0.2606470368E+01   0.1000765559E+01   0.1025748978E-03   0.5040384058E-03   0.7655591742E-03   0.0000000000E+00   0.0000000000E+00   0.0000000000E+00  -0.1211466837E+01  -0.1411771873E+01  -0.1160011229E+01  -0.4077633656E-02   0.1999610148E-02  -0.3613062111E-01
  -0.5792139904E+00   0.2397414304E+01   0.1001325644E+01  -0.5908144497E-03   0.1387214268E-02   0.1325643993E-02   0.0000000000E+00   0.0000000000E+00   0.0000000000E+00  -0.2652505614E+00  -0.6272725375E+00  -0.1899032402E+00   0.5578503322E-02  -0.2097262857E-01  -0.3312292533E-01
  -0.3841590877E+00   0.2406960478E+01   0.1001148463E+01  -0.3254107153E-03   0.1191847808E-02   0.1148463116E-02   0.0000000000E+00   0.0000000000E+00   0.0000000000E+00  -0.3377070099E+00  -0.6484019615E+00  -0.2735705839E+00  -0.1327833851E-02  -0.1907950464E-01  -0.2583947026E-01
  -0.1857876533E+00   0.2410780065E+01   0.1001017192E+01  -0.9529827730E-04   0.1061555252E-02   0.1017191828E-02   0.0000000000E+00   0.0000000000E+00   0.0000000000E+00  -0.3918392041E+00  -0.6675142152E+00  -0.3370230112E+00  -0.4682702531E-02  -0.1157981733E-01  -0.1982675383E-01
   0.1566005562E-01   0.2409818958E+01   0.1000967615E+01   0.1194226176E-03   0.1015737514E-02   0.9676152046E-03   0.0000000000E+00   0.0000000000E+00   0.0000000000E+00  -0.3907241911E+00  -0.6545507046E+00  -0.3406662740E+00  -0.1629489232E-02   0.2529570179E-02  -0.1814519038E-01
  -0.5737430453E+00   0.2197089948E+01   0.1001550904E+01  -0.8090143069E-03   0.2270978489E-02   0.1550903803E-02   0.0000000000E+00   0.0000000000E+00   0.0000000000E+00  -0.4287534364E+00  -0.8754403003E+00  -0.3593038669E+00  -0.1428695889E-01  -0.2966180824E-01  -0.2094556503E-01
  -0.3802709922E+00   0.2209470134E+01   0.1001312272E+01  -0.4614042324E-03   0.1934623591E-02   0.1312271670E-02   0.0000000000E+00   0.0000000000E+00   0.0000000000E+00  -0.4863556001E+00  -0.8647924185E+00  -0.4323580322E+00  -0.1636452746E-01  -0.2768037918E-01  -0.1214390821E-01
  -0.1839822213E+00   0.2215831684E+01   0.1001139447E+01  -0.1605882770E-03   0.1707954484E-02   0.1139447115E-02   0.0000000000E+00   0.0000000000E+00   0.0000000000E+00  -0.5399209191E+00  -0.8724092431E+00  -0.4981013897E+00  -0.1176477966E-01  -0.1558692568E-01  -0.4202695690E-02
   0.1678557912E-01   0.2213374542E+01   0.1001077667E+01   0.1204931235E-03   0.1636432127E-02   0.1077667018E-02   0.0000000000E+00   0.0000000000E+00   0.0000000000E+00  -0.5297014113E+00  -0.8472651601E+00  -0.4937341880E+00   0.1741373350E-02   0.3064916390E-02  -0.3331846239E-02
  -0.5679159971E+00   0.1996932402E+01   0.1001724224E+01  -0.1043996140E-02   0.3297461905E-02   0.1724224364E-02   0.0000000000E+00   0.0000000000E+00   0.0000000000E+00  -0.3019913416E+00  -0.8230542154E+00  -0.2456087403E+00  -0.4246300606E-01  -0.3971223317E-01  -0.1256618165E-01
  -0.3767311233E+00   0.2013522425E+01   0.1001406918E+01  -0.6167552878E-03   0.2775465410E-02   0.1406918078E-02   0.0000000000E+00   0.0000000000E+00   0.0000000000E+00  -0.3711364923E+00  -0.8063554885E+00  -0.3374318384E+00  -0.3896078501E-01  -0.4016341079E-01  -0.2897849571E-02
  -0.1851347614E+00   0.2026976773E+01   0.1001176877E+01  -0.2475013633E-03   0.2413702541E-02   0.1176877203E-02   0.0000000000E+00   0.0000000000E+00   0.0000000000E+00  -0.4374444781E+00  -0.8152385213E+00  -0.4214001025E+00  -0.2245143890E-01  -0.2046713199E-01   0.6315115519E-02
   0.1737187610E-01   0.2018579009E+01   0.1001105681E+01   0.1038111018E-03   0.2324579423E-02   0.1105680594E-02   0.0000000000E+00   0.0000000000E+00   0.0000000000E+00  -0.4400076743E+00  -0.7990415850E+00  -0.4300601909E+00   0.5243338016E-02   0.4537782553E-02   0.6723740059E-02
  -0.5619883617E+00   0.1796994892E+01   0.1001852341E+01  -0.1273997719E-02   0.4445161905E-02   0.1852341488E-02   0.0000000000E+00   0.0000000000E+00   0.0000000000E+00  -0.2794295824E+00  -0.8711083683E+00  -0.2446950555E+00  -0.7974309353E-01  -0.5048233904E-01  -0.5563691012E-02
  -0.3726937003E+00   0.1817055149E+01   0.1001447154E+01  -0.7680183150E-03   0.3694459238E-02   0.1447153542E-02   0.0000000000E+00   0.0000000000E+00   0.0000000000E+00  -0.3498009183E+00  -0.8330657881E+00  -0.3442394914E+00  -0.7143773113E-01  -0.5297869023E-01   0.4793404588E-02
  -0.1831679459E+00   0.1833470896E+01   0.1001164020E+01  -0.3358538723E-03   0.3181295886E-02   0.1164020310E-02   0.0000000000E+00   0.0000000000E+00   0.0000000000E+00  -0.4329675089E+00  -0.8430008076E+00  -0.4474700259E+00  -0.3813635775E-01  -0.2470117377E-01   0.1228443364E-01
   0.1831768052E-01   0.1823402007E+01   0.1001077885E+01   0.7307852424E-04   0.3054337283E-02   0.1077884629E-02   0.0000000000E+00   0.0000000000E+00   0.0000000000E+00  -0.4382307702E+00  -0.8253511322E+00  -0.4598883362E+00   0.8009995912E-02   0.4496160715E-02   0.1364702781E-01
  -0.5561064204E+00   0.1597544475E+01   0.1001949326E+01  -0.1512499425E-02   0.5694794732E-02   0.1949326131E-02   0.0000000000E+00   0.0000000000E+00   0.0000000000E+00  -0.2567132192E+00  -0.9134406123E+00  -0.2487952651E+00  -0.1222173701E+00  -0.6370469595E-01   0.4402915190E-03
  -0.3683509102E+00   0.1620782078E+01   0.1001432205E+01  -0.9258561806E-03   0.4660308254E-02   0.1432205430E-02   0.0000000000E+00   0.0000000000E+00   0.0000000000E+00  -0.3112678144E+00  -0.8327761880E+00  -0.3418248778E+00  -0.1096511539E+00  -0.6805167874E-01   0.1007617620E-01
  -0.1807411366E+00   0.1639537010E+01   0.1001089944E+01  -0.4321386406E-03   0.3967319694E-02   0.1089943575E-02   0.0000000000E+00   0.0000000000E+00   0.0000000000E+00  -0.4000339437E+00  -0.8317356200E+00  -0.4539136742E+00  -0.5403529150E-01  -0.2834150573E-01   0.1943725684E-01
   0.1931856527E-01   0.1628619710E+01   0.1000991420E+01   0.3198127440E-04   0.3793039892E-02   0.9914204590E-03   0.0000000000E+00   0.0000000000E+00   0.0000000000E+00  -0.4146724499E+00  -0.8209632712E+00  -0.4769417127E+00   0.1363822560E-01   0.4375254392E-02   0.1718270178E-01
  -0.5498423653E+00   0.1398970601E+01   0.1002014067E+01  -0.1759119333E-02   0.7028931208E-02   0.2014067215E-02   0.0000000000E+00   0.0000000000E+00   0.0000000000E+00  -0.2531916640E+00  -0.9828533435E+00  -0.2843603317E+00  -0.1822466472E+00  -0.7920937802E-01   0.7073286490E-02
  -0.3632486990E+00   0.1425593923E+01   0.1001372815E+01  -0.1086109021E-02   0.5641773153E-02   0.1372815068E-02   0.0000000000E+00   0.0000000000E+00   0.0000000000E+00  -0.2769110534E+00  -0.8350754311E+00  -0.3535188534E+00  -0.1668159956E+00  -0.8313412170E-01   0.1378649097E-01
  -0.1793865114E+00   0.1449733560E+01   0.1000970403E+01  -0.5387364443E-03   0.4728020100E-02   0.9704033940E-03   0.0000000000E+00   0.0000000000E+00   0.0000000000E+00  -0.3741741448E+00  -0.8169674140E+00  -0.4726408304E+00  -0.8045647063E-01  -0.3013078460E-01   0.1337400471E-01
   0.2019319979E-01   0.1435488474E+01   0.1000866404E+01  -0.2731121458E-04   0.4510173536E-02   0.8664035869E-03   0.0000000000E+00   0.0000000000E+00   0.0000000000E+00  -0.3965566032E+00  -0.8077850666E+00  -0.5015082306E+00   0.1438828592E-01   0.2920280501E-02   0.1545002398E-01
  -0.5417984775E+00   0.1201449477E+01   0.1002008647E+01  -0.1994436492E-02   0.8426277227E-02   0.2008646625E-02   0.0000000000E+00   0.0000000000E+00   0.0000000000E+00  -0.2791945118E+00  -0.1065931818E+01  -0.3575483359E+00  -0.2386866395E+00  -0.1053460673E+00   0.3408792693E-01
  -0.3561076851E+00   0.1233084464E+01   0.1001242286E+01  -0.1211140139E-02   0.6605534353E-02   0.1242285750E-02   0.0000000000E+00   0.0000000000E+00   0.0000000000E+00  -0.2695541595E+00  -0.8595934876E+00  -0.4049199575E+00  -0.2243574480E+00  -0.8482792385E-01   0.2228555475E-01
  -0.1702204871E+00   0.1250041542E+01   0.1000840904E+01  -0.5970821022E-03   0.5473671523E-02   0.8409037571E-03   0.0000000000E+00   0.0000000000E+00   0.0000000000E+00  -0.3344864758E+00  -0.7793635360E+00  -0.4770939448E+00  -0.1046077487E+00  -0.2597840623E-01   0.4371405905E-02
   0.2064082987E-01   0.1246604551E+01   0.1000718575E+01  -0.6830513254E-04   0.5170330673E-02   0.7185754847E-03   0.0000000000E+00   0.0000000000E+00   0.0000000000E+00  -0.2897297164E+00  -0.6955070505E+00  -0.4393677456E+00   0.2351757269E-01  -0.1180469968E-02   0.1335867331E-02
  -0.5289952191E+00   0.1005022342E+01   0.1001877047E+01  -0.2290669133E-02   0.9818369790E-02   0.1877046614E-02   0.0000000000E+00   0.0000000000E+00   0.0000000000E+00  -0.1691918235E+00  -0.1085607202E+01  -0.3605600855E+00  -0.3376397570E+00  -0.1395879662E+00   0.2292494287E-01
  -0.3440350767E+00   0.1045080805E+01   0.1001083705E+01  -0.1356052694E-02   0.7490535425E-02   0.1083705030E-02   0.0000000000E+00   0.0000000000E+00   0.0000000000E+00  -0.8824710394E-01  -0.7246719616E+00  -0.2988221732E+00  -0.2974991652E+00  -0.6003179275E-01  -0.1239499643E-01
  -0.1646441394E+00   0.1068301574E+01   0.1000702277E+01  -0.6976894324E-03   0.6112944328E-02   0.7022771987E-03   0.0000000000E+00   0.0000000000E+00   0.0000000000E+00  -0.2821601001E+00  -0.7174133316E+00  -0.4640938068E+00  -0.1329194187E+00  -0.2187497204E-01  -0.2345552184E-01
   0.1381536609E-01   0.1072830450E+01   0.1000613431E+01  -0.1963149087E-03   0.5720150103E-02   0.6134312503E-03   0.0000000000E+00   0.0000000000E+00   0.0000000000E+00  -0.3322240378E+00  -0.7076976673E+00  -0.5006682424E+00   0.3933046701E-01   0.1106224796E-01  -0.2880835797E-01
  -0.5029155323E+00   0.8111206086E+00   0.1001996390E+01  -0.2400131345E-02   0.1108620462E-01   0.1996389762E-02   0.0000000000E+00   0.0000000000E+00   0.0000000000E+00  -0.1313060465E+00  -0.1018326929E+01  -0.3094336423E+00  -0.4287919068E+00  -0.1273946662E+00  -0.4344235132E-01
  -0.3250715174E+00   0.8715493637E+00   0.1001132429E+01  -0.1414958411E-02   0.8224482685E-02   0.1132429231E-02   0.0000000000E+00   0.0000000000E+00   0.0000000000E+00  -0.4076553356E+00  -0.1041094350E+01  -0.6180346936E+00  -0.3402894529E+00  -0.4282959990E-01  -0.4729504865E-01
  -0.1582899442E+00   0.9061118422E+00   0.1000647194E+01  -0.7948631946E-03   0.6625956174E-02   0.6471942933E-03   0.0000000000E+00   0.0000000000E+00   0.0000000000E+00  -0.5852628184E+00  -0.9870100886E+00  -0.7715914636E+00  -0.1587028962E+00  -0.2896359530E-01  -0.4358081896E-01
   0.4988119783E-02   0.9148422372E+00   0.1000512934E+01  -0.3378372165E-03   0.6162215223E-02   0.5129337001E-03   0.0000000000E+00   0.0000000000E+00   0.0000000000E+00  -0.4679420689E+00  -0.8222899702E+00  -0.6586499096E+00   0.4379800595E-01   0.2135685501E-01  -0.3949769450E-01
  -0.1354885755E+00   0.7448452647E+00   0.1000414109E+01  -0.9725895247E-03   0.7006877677E-02   0.4141087189E-03   0.0000000000E+00   0.0000000000E+00   0.0000000000E+00   0.6448761330E+00   0.2003374747E+00   0.3517507668E+00  -0.1436075391E+00  -0.6341301138E-01  -0.5507978274E-01
  -0.4756678412E-03   0.7565973051E+00   0.1000261352E+01  -0.4756678412E-03   0.6597305131E-02   0.2613524704E-03   0.0000000000E+00   0.0000000000E+00   0.0000000000E+00   0.4629161513E+00   0.6240554368E-01   0.1659841782E+00   0.4798292449E-01   0.1569241410E-01  -0.4359281129E-01
  -0.2715644012E+00   0.7081559801E+00   0.1001003735E+01  -0.1615263195E-02   0.8422127088E-02   0.1003734748E-02   0.0000000000E+00   0.0000000000E+00   0.0000000000E+00   0.5961547744E+00  -0.3982845324E-01   0.3198222271E+00  -0.3148439157E+00  -0.1272531689E+00  -0.7545027286E-01
  -0.4066196218E+00   0.6427723620E+00   0.1002073061E+01  -0.2597076789E-02   0.1089756203E-01   0.2073060667E-02   0.0000000000E+00   0.0000000000E+00   0.0000000000E+00   0.1254141787E+01   0.3113311963E+00   0.1017468420E+01  -0.3748259450E+00  -0.2289586375E+00  -0.1986027964E+00
   0.6572794709E+00  -0.6263216729E+00   0.1005365191E+01   0.2491512879E-02   0.3819465708E-01   0.5365191499E-02   0.0000000000E+00   0.0000000000E+00   0.0000000000E+00  -0.1438557973E+00  -0.1322541971E+01  -0.1452245718E+00  -0.3412527691E+00   0.6606157613E-01   0.6525241184E-01
   0.7788051814E+00  -0.3969678125E+00   0.1006507787E+01   0.4684075372E-02   0.3359569654E-01   0.6507787178E-02   0.0000000000E+00   0.0000000000E+00   0.0000000000E+00  -0.2109970367E+00  -0.1516771567E+01   0.3219808718E-01  -0.1216010352E+00  -0.2181138841E+00   0.2349859402E+00
   0.6571811782E+00  -0.3353879778E+00   0.1007900988E+01   0.4547690192E-02   0.3416514120E-01   0.7900987532E-02   0.0000000000E+00   0.0000000000E+00   0.0000000000E+00  -0.2225129893E+01  -0.3720021017E+01  -0.1745948298E+01  -0.2000034702E+00  -0.4548606535E-01   0.3848597382E+00
   0.5304415940E+00  -0.4940509354E+00   0.1005564791E+01   0.2610694958E-02   0.3876660758E-01   0.5564790629E-02   0.0000000000E+00   0.0000000000E+00   0.0000000000E+00  -0.5875623202E-02  -0.1279550822E+01   0.2818453723E-01  -0.3811884929E+00   0.3254809409E+00   0.4001133305E+00
   0.8511344570E+00  -0.1830091952E+00   0.1007152567E+01   0.6801047023E-02   0.2961249376E-01   0.7152567445E-02   0.0000000000E+00   0.0000000000E+00   0.0000000000E+00  -0.3048179676E+00  -0.1740021287E+01   0.6832427065E-01  -0.3314561373E-02  -0.2202564497E+00   0.1214092582E+00
   0.7324122863E+00  -0.1578483988E+00   0.1008693412E+01   0.6306298278E-02   0.2995489919E-01   0.8693412200E-02   0.0000000000E+00   0.0000000000E+00   0.0000000000E+00  -0.1626144311E+01  -0.3304670414E+01  -0.1034910219E+01  -0.4270480455E-01  -0.2328610766E+00   0.1523618560E+00
   0.8793143923E+00   0.2434604060E-01   0.1007181591E+01   0.7661074294E-02   0.2604445160E-01   0.7181590620E-02   0.0000000000E+00   0.0000000000E+00   0.0000000000E+00  -0.1783017940E+00  -0.1624758875E+01   0.2494788839E+00  -0.2047009210E-01  -0.1635222482E+00   0.1501643697E-01
   0.7570062001E+00   0.2614190236E-01   0.1008648481E+01   0.7006200086E-02   0.2614190236E-01   0.8648480900E-02   0.0000000000E+00   0.0000000000E+00   0.0000000000E+00  -0.1373428489E+01  -0.3051060467E+01  -0.7495517318E+00   0.5170658039E-02  -0.2036317456E+00   0.2438633462E-01
   0.9892363025E+00  -0.1828424336E+00   0.1005812401E+01   0.7521040465E-02   0.2881421142E-01   0.5812401476E-02   0.0000000000E+00   0.0000000000E+00   0.0000000000E+00  -0.5458162947E+00  -0.1810520585E+01  -0.3492582443E+00   0.6604718938E-01  -0.8160987212E-01   0.1102296826E+00
   0.1015521170E+01   0.2498873217E-01   0.1005981647E+01   0.8344289548E-02   0.2582019317E-01   0.5981647130E-02   0.0000000000E+00   0.0000000000E+00   0.0000000000E+00  -0.4759774438E+00  -0.1747290461E+01  -0.1921218656E+00  -0.1522203638E-01  -0.7867258892E-01   0.3172832744E-01
   0.1145165644E+01  -0.1804214895E+00   0.1005169118E+01   0.8381804139E-02   0.2836887248E-01   0.5169118402E-02   0.0000000000E+00   0.0000000000E+00   0.0000000000E+00  -0.5824985570E+00  -0.1799194189E+01  -0.4767151086E+00   0.1133285697E+00   0.2897970206E-01   0.6244946953E-01
   0.1161882804E+01   0.2551564212E-01   0.1005150181E+01   0.9057803716E-02   0.2572037712E-01   0.5150180745E-02   0.0000000000E+00   0.0000000000E+00   0.0000000000E+00  -0.5053038905E+00  -0.1668553510E+01  -0.3226479981E+00  -0.2683417128E-03  -0.8027326369E-03   0.5267997849E-02
   0.1311813030E+01  -0.1775332007E+00   0.1004728931E+01   0.9308849547E-02   0.2807257430E-01   0.4728931296E-02   0.0000000000E+00   0.0000000000E+00   0.0000000000E+00  -0.4582449003E+00  -0.1623742094E+01  -0.4020966996E+00   0.9812253683E-01   0.3343359425E-01   0.4998997053E-01
   0.1324689595E+01   0.2732793297E-01   0.1004673295E+01   0.9856905087E-02   0.2559882097E-01   0.4673294854E-02   0.0000000000E+00   0.0000000000E+00   0.0000000000E+00  -0.4311469155E+00  -0.1551700983E+01  -0.3090173640E+00  -0.1041037570E-01   0.3804120493E-01   0.5444662921E-02
   0.1483983328E+01  -0.1752378489E+00   0.1004391330E+01   0.1026801805E-01   0.2785466608E-01   0.4391330021E-02   0.0000000000E+00   0.0000000000E+00   0.0000000000E+00  -0.3087704884E+00  -0.1446852842E+01  -0.2898864926E+00   0.8405568475E-01   0.3810890541E-01   0.4008733423E-01
   0.1494094648E+01   0.2863271329E-01   0.1004303892E+01   0.1070634843E-01   0.2549445029E-01   0.4303892032E-02   0.0000000000E+00   0.0000000000E+00   0.0000000000E+00  -0.2811609159E+00  -0.1379582372E+01  -0.2061202657E+00  -0.8891888830E-02   0.3181776803E-01   0.6219717226E-02
   0.1658980761E+01  -0.1735497325E+00   0.1004047980E+01   0.1124707113E-01   0.2768398245E-01   0.4047979778E-02   0.0000000000E+00   0.0000000000E+00   0.0000000000E+00  -0.1441210606E+00  -0.1254402262E+01  -0.1601699521E+00   0.6912150649E-01   0.2977608555E-01   0.3371443059E-01
   0.1666045419E+01   0.2930548062E-01   0.1003941534E+01   0.1158951934E-01   0.2542884662E-01   0.3941533647E-02   0.0000000000E+00   0.0000000000E+00   0.0000000000E+00  -0.1435889224E+00  -0.1222521861E+01  -0.1117524341E+00  -0.8305231190E-02   0.2395401990E-01   0.8267345846E-02
   0.1835315154E+01  -0.1716485273E+00   0.1003643803E+01   0.1223962430E-01   0.2751516273E-01   0.3643802869E-02   0.0000000000E+00   0.0000000000E+00   0.0000000000E+00  -0.1037478350E+00  -0.1179881564E+01  -0.1574988117E+00   0.4496762942E-01   0.1778175563E-02   0.2646774545E-01
   0.1837943495E+01   0.3213783393E-01   0.1003508417E+01   0.1248949533E-01   0.2536283493E-01   0.3508416519E-02   0.0000000000E+00   0.0000000000E+00   0.0000000000E+00  -0.1391466290E+00  -0.1187660522E+01  -0.1529631595E+00  -0.7557312655E-02  -0.9265384384E-02   0.8239194453E-02
   0.2013237263E+01  -0.1713908626E+00   0.1003036748E+01   0.1323726293E-01   0.2729807635E-01   0.3036748176E-02   0.0000000000E+00   0.0000000000E+00   0.0000000000E+00   0.8407964932E-01  -0.9276839574E+00  -0.3284791137E-01   0.2176973972E-01  -0.2350785268E-01   0.1438217046E-01
   0.2013416063E+01   0.3252680357E-01   0.1002864566E+01   0.1341606295E-01   0.2535418457E-01   0.2864566147E-02   0.0000000000E+00   0.0000000000E+00   0.0000000000E+00   0.6561266244E-01  -0.9154622680E+00  -0.1848473128E-01  -0.7156730633E-02  -0.3612922009E-01   0.7996780142E-02
   0.9411791844E+00  -0.3935836562E+00   0.1005354572E+01   0.5657999355E-02   0.3191622982E-01   0.5354571832E-02   0.0000000000E+00   0.0000000000E+00   0.0000000000E+00   0.1184269347E-01  -0.1293407467E+01   0.2325481908E-01   0.2599053693E-02  -0.8392010479E-01   0.6889800401E-01
   0.1114055053E+01  -0.3869695512E+00   0.1004923130E+01   0.6884473256E-02   0.3110690481E-01   0.4923130339E-02   0.0000000000E+00   0.0000000000E+00   0.0000000000E+00  -0.1073050152E+00  -0.1431075047E+01  -0.1746143175E+00   0.1174772863E+00   0.1952787844E-01   0.2038995718E-01
   0.1290566881E+01  -0.3813406057E+00   0.1004635253E+01   0.8097371140E-02   0.3059025327E-01   0.4635252544E-02   0.0000000000E+00   0.0000000000E+00   0.0000000000E+00  -0.9976985096E-01  -0.1347694346E+01  -0.1707450219E+00   0.1153143199E+00   0.2374512706E-01   0.1286969059E-01
   0.1469177365E+01  -0.3774697522E+00   0.1004397698E+01   0.9270784812E-02   0.3023710485E-01   0.4397697721E-02   0.0000000000E+00   0.0000000000E+00   0.0000000000E+00  -0.5847691926E-01  -0.1262716708E+01  -0.1357508031E+00   0.1176690514E+00   0.3008179228E-01   0.1098206803E-01
   0.1649313175E+01  -0.3749598313E+00   0.1004131824E+01   0.1041074494E-01   0.2995392173E-01   0.4131823705E-02   0.0000000000E+00   0.0000000000E+00   0.0000000000E+00   0.1652349312E-01  -0.1143614975E+01  -0.6951839678E-01   0.1088598267E+00   0.2419166879E-01   0.1161869360E-01
   0.1830545143E+01  -0.3731764839E+00   0.1003790885E+01   0.1152916333E-01   0.2967414409E-01   0.3790885229E-02   0.0000000000E+00   0.0000000000E+00   0.0000000000E+00   0.3194380182E-01  -0.1086050759E+01  -0.7395938040E-01   0.8104157371E-01   0.2358766751E-02   0.1024114300E-01
   0.2012631117E+01  -0.3728604336E+00   0.1003273811E+01   0.1263111742E-01   0.2926778638E-01   0.3273811030E-02   0.0000000000E+00   0.0000000000E+00   0.0000000000E+00   0.1560475628E+00  -0.9048099383E+00   0.3582997593E-02   0.5119911016E-01  -0.1534484687E-01  -0.6627031220E-02
   0.8821411176E+00  -0.6071936780E+00   0.1005418994E+01   0.4024032649E-02   0.3516498297E-01   0.5418993734E-02   0.0000000000E+00   0.0000000000E+00   0.0000000000E+00   0.7238601138E+00  -0.5955444370E+00   0.6631118962E+00  -0.1431844700E+00  -0.5059357936E-01  -0.5805576907E-01
   0.1078624867E+01  -0.5923722583E+00   0.1005134712E+01   0.5510236899E-02   0.3389153873E-01   0.5134712135E-02   0.0000000000E+00   0.0000000000E+00   0.0000000000E+00   0.3997122143E+00  -0.9403931414E+00   0.2918509351E+00   0.3967467232E-01  -0.2807136369E-01  -0.4327792305E-01
   0.1266662285E+01  -0.5829946713E+00   0.1004913430E+01   0.6869484906E-02   0.3313925672E-01   0.4913430221E-02   0.0000000000E+00   0.0000000000E+00   0.0000000000E+00   0.2756617000E+00  -0.9964595451E+00   0.1774351397E+00   0.7387390539E-01  -0.7658567225E-02  -0.3226702531E-01
   0.1452446145E+01  -0.5777801035E+00   0.1004680401E+01   0.8141914772E-02   0.3263893151E-01   0.4680400511E-02   0.0000000000E+00   0.0000000000E+00   0.0000000000E+00   0.1937245015E+00  -0.1032260866E+01   0.9372080552E-01   0.1010834856E+00  -0.3230009920E-02  -0.1678472781E-01
   0.1638213791E+01  -0.5749643817E+00   0.1004422014E+01   0.9359281196E-02   0.3224291633E-01   0.4422013619E-02   0.0000000000E+00   0.0000000000E+00   0.0000000000E+00   0.1580141872E+00  -0.1022190579E+01   0.5377156724E-01   0.1076445963E+00  -0.2453123545E-03  -0.7213429849E-02
   0.1824629386E+01  -0.5733423160E+00   0.1004106788E+01   0.1054342580E-01   0.3185457697E-01   0.4106788472E-02   0.0000000000E+00   0.0000000000E+00   0.0000000000E+00   0.1234957256E+00  -0.1014451617E+01   0.5634835032E-02   0.8499363153E-01  -0.8201785537E-02  -0.3787441411E-02
   0.2011706486E+01  -0.5727643565E+00   0.1003695954E+01   0.1170648625E-01   0.3129390949E-01   0.3695953544E-02   0.0000000000E+00   0.0000000000E+00   0.0000000000E+00   0.1646586922E+00  -0.9303989628E+00   0.1695976822E-01   0.5728742614E-01  -0.1194207522E-01  -0.2143351948E-01
   0.1819252893E+01  -0.7718545030E+00   0.1004485987E+01   0.9512822782E-02   0.3404082604E-01   0.4485987229E-02   0.0000000000E+00   0.0000000000E+00   0.0000000000E+00   0.9918598617E-01  -0.1044477513E+01  -0.1423985981E-01   0.6837129618E-01   0.2427117257E-02  -0.6623833731E-02
   0.2010705153E+01  -0.7714464923E+00   0.1004181607E+01   0.1070515335E-01   0.3337851568E-01   0.4181606763E-02   0.0000000000E+00   0.0000000000E+00   0.0000000000E+00   0.1075752016E+00  -0.1009913735E+01  -0.2102020072E-01   0.4537255591E-01   0.8149555581E-02  -0.2205476074E-01
   0.1815168159E+01  -0.9697303050E+00   0.1004949878E+01   0.8528368688E-02   0.3622789497E-01   0.4949878102E-02   0.0000000000E+00   0.0000000000E+00   0.0000000000E+00   0.7784809052E-01  -0.1055456553E+01  -0.1033384661E-01   0.4695606811E-01   0.3415646433E-02  -0.1259223913E-01
   0.2009707607E+01  -0.9694400797E+00   0.1004732753E+01   0.9707606564E-02   0.3551152028E-01   0.4732753361E-02   0.0000000000E+00   0.0000000000E+00   0.0000000000E+00   0.4792656630E-01  -0.1074407869E+01  -0.4430757991E-01   0.3267717104E-01   0.1524662161E-01  -0.2397577100E-01
   0.1812290004E+01  -0.1167253512E+01   0.1005453856E+01   0.7644703856E-02   0.3840861833E-01   0.5453856119E-02   0.0000000000E+00   0.0000000000E+00   0.0000000000E+00   0.6068551739E-01  -0.1055229123E+01   0.4265961480E-02   0.2377918470E-01   0.1807538653E-02  -0.1062047498E-01
   0.2008789044E+01  -0.1167060404E+01   0.1005300929E+01   0.8789043972E-02   0.3767713590E-01   0.5300928909E-02   0.0000000000E+00   0.0000000000E+00   0.0000000000E+00   0.1035210173E-01  -0.1105627401E+01  -0.4204509993E-01   0.1639502214E-01   0.1621165115E-01  -0.1792442905E-01
   0.1810283312E+01  -0.1364601702E+01   0.1005963255E+01   0.6871472465E-02   0.4057922839E-01   0.5963255016E-02   0.0000000000E+00   0.0000000000E+00   0.0000000000E+00   0.4378622655E-01  -0.1053640363E+01   0.1632846877E-01   0.4809493693E-02   0.2386672097E-03  -0.6955756732E-02
   0.2007976893E+01  -0.1364492234E+01   0.1005848775E+01   0.7976892628E-02   0.3985899586E-01   0.5848775267E-02   0.0000000000E+00   0.0000000000E+00   0.0000000000E+00  -0.1310968797E-01  -0.1117307088E+01  -0.3194438076E-01   0.3475601384E-02   0.1438387716E-01  -0.1025091854E-01
   0.1808824537E+01  -0.1561872789E+01   0.1006466630E+01   0.6194226608E-02   0.4273765066E-01   0.6466630288E-02   0.0000000000E+00   0.0000000000E+00   0.0000000000E+00   0.2812484959E-01  -0.1052323319E+01   0.2342179907E-01  -0.8927889466E-02  -0.9350966084E-03  -0.3756614073E-02
   0.2007265030E+01  -0.1561840128E+01   0.1006367484E+01   0.7265029844E-02   0.4204266244E-01   0.6367483583E-02   0.0000000000E+00   0.0000000000E+00   0.0000000000E+00  -0.2479574003E-01  -0.1114953509E+01  -0.1931524033E-01  -0.5142311985E-02   0.1121361793E-01  -0.3912996513E-02
   0.1807683023E+01  -0.1759116794E+01   0.1006965516E+01   0.5592143382E-02   0.4488250565E-01   0.6965516299E-02   0.0000000000E+00   0.0000000000E+00   0.0000000000E+00   0.1305887937E-01  -0.1052253333E+01   0.2530906079E-01  -0.1797021922E-01  -0.1797647872E-02  -0.1737842267E-02
   0.2006634225E+01  -0.1759159966E+01   0.1006863869E+01   0.6634224796E-02   0.4421682379E-01   0.6863868977E-02   0.0000000000E+00   0.0000000000E+00   0.0000000000E+00  -0.2946680372E-01  -0.1104675156E+01  -0.7825237499E-02  -0.1011243272E-01   0.7639040040E-02   0.2259707622E-03
   0.1806716969E+01  -0.1956357519E+01   0.1007464461E+01   0.5044629475E-02   0.4701277071E-01   0.7464460874E-02   0.0000000000E+00   0.0000000000E+00   0.0000000000E+00  -0.4203055553E-03  -0.1052218901E+01   0.2424964275E-01  -0.2329078030E-01  -0.2420547160E-02  -0.5984639379E-03
   0.2006063233E+01  -0.1956480000E+01   0.1007348788E+01   0.6063232748E-02   0.4637363012E-01   0.7348788140E-02   0.0000000000E+00   0.0000000000E+00   0.0000000000E+00  -0.2958195818E-01  -0.1089692760E+01   0.2225123566E-02  -0.1264425790E-01   0.4243273854E-02   0.2464153507E-02
   0.1805847021E+01  -0.2153603957E+01   0.1007969455E+01   0.4532311218E-02   0.4912789263E-01   0.7969454926E-02   0.0000000000E+00   0.0000000000E+00   0.0000000000E+00  -0.1272288747E-01  -0.1052184545E+01   0.2160374008E-01  -0.2549863626E-01  -0.2848900104E-02  -0.1273539225E-03
   0.2005530906E+01  -0.2153812644E+01   0.1007834084E+01   0.5530906420E-02   0.4850864601E-01   0.7834084441E-02   0.0000000000E+00   0.0000000000E+00   0.0000000000E+00  -0.2795080141E-01  -0.1073272311E+01   0.1058025709E-01  -0.1332139766E-01   0.1411997948E-02   0.3130989878E-02
   0.1805034973E+01  -0.2350855824E+01   0.1008485293E+01   0.4034852564E-02   0.5122804624E-01   0.8485293039E-02   0.0000000000E+00   0.0000000000E+00   0.0000000000E+00  -0.2448378283E-01  -0.1052586832E+01   0.1820391912E-01  -0.2441326810E-01  -0.3064295590E-02   0.4026216435E-03
   0.2005015398E+01  -0.2351157730E+01   0.1008329891E+01   0.5015397893E-02   0.5062073001E-01   0.8329890981E-02   0.0000000000E+00   0.0000000000E+00   0.0000000000E+00  -0.2740019836E-01  -0.1058832644E+01   0.1659197265E-01  -0.1205354169E-01  -0.5249136056E-03   0.3028679235E-02
   0.1804272810E+01  -0.2548106243E+01   0.1009015203E+01   0.3530900006E-02   0.5331439654E-01   0.9015202908E-02   0.0000000000E+00   0.0000000000E+00   0.0000000000E+00  -0.3335849908E-01  -0.1051137864E+01   0.1749409322E-01  -0.2089846308E-01  -0.2890920159E-02   0.1891321132E-03
   0.2004494240E+01  -0.2548506241E+01   0.1008844519E+01   0.4494239866E-02   0.5271197890E-01   0.8844518889E-02   0.0000000000E+00   0.0000000000E+00   0.0000000000E+00  -0.2688185015E-01  -0.1046038531E+01   0.2308182535E-01  -0.8810999404E-02  -0.1113623180E-02   0.1248585108E-02
   0.1803565863E+01  -0.2745343266E+01   0.1009567741E+01   0.2997043340E-02   0.5538934436E-01   0.9567740674E-02   0.0000000000E+00   0.0000000000E+00   0.0000000000E+00  -0.4878027016E-01  -0.1056583852E+01   0.1295895422E-01  -0.1060755021E-01  -0.2517323920E-02  -0.1853584803E-03
   0.2003940380E+01  -0.2745841896E+01   0.1009389669E+01   0.3940380259E-02   0.5478748408E-01   0.9389668948E-02   0.0000000000E+00   0.0000000000E+00   0.0000000000E+00  -0.3943116819E-01  -0.1047752813E+01   0.2024194665E-01   0.4495681300E-03  -0.4183943748E-03  -0.3223575980E-03
   0.1802849840E+01  -0.2942542749E+01   0.1010136586E+01   0.2397010298E-02   0.5745725141E-01   0.1013658566E-01   0.0000000000E+00   0.0000000000E+00   0.0000000000E+00  -0.5175099955E-01  -0.1052095284E+01   0.2150834919E-01  -0.2141905904E-02  -0.4294411661E-02   0.1882716755E-02
   0.2003322644E+01  -0.2943145324E+01   0.1009952647E+01   0.3322643715E-02   0.5685467598E-01   0.9952647078E-02   0.0000000000E+00   0.0000000000E+00   0.0000000000E+00  -0.4119116939E-01  -0.1042353792E+01   0.2886823073E-01   0.7335119518E-02  -0.3227286267E-03   0.1407833138E-02
   0.1628363813E+01  -0.7734640220E+00   0.1004770674E+01   0.8300742817E-02   0.3452891298E-01   0.4770673763E-02   0.0000000000E+00   0.0000000000E+00   0.0000000000E+00   0.6279414168E-01  -0.1117229174E+01  -0.3991133036E-01   0.8553393167E-01   0.2334746823E-03  -0.8654286855E-02
   0.1621073511E+01  -0.9712553055E+00   0.1005210088E+01   0.7334971116E-02   0.3679704452E-01   0.5210087545E-02   0.0000000000E+00   0.0000000000E+00   0.0000000000E+00   0.3871439798E-01  -0.1122044014E+01  -0.3931918169E-01   0.5585210877E-01  -0.5764670781E-02  -0.1472531702E-01
   0.1616104285E+01  -0.1168621307E+01   0.1005686868E+01   0.6490745060E-02   0.3903793342E-01   0.5686867916E-02   0.0000000000E+00   0.0000000000E+00   0.0000000000E+00   0.2471918405E-01  -0.1110359730E+01  -0.2330319654E-01   0.2683249097E-01  -0.1098827832E-01  -0.1118888927E-01
   0.1612790578E+01  -0.1365765875E+01   0.1006169576E+01   0.5760067846E-02   0.4124897526E-01   0.6169575576E-02   0.0000000000E+00   0.0000000000E+00   0.0000000000E+00   0.1412179343E-01  -0.1095221494E+01  -0.7091359019E-02   0.2619422649E-02  -0.1336339920E-01  -0.6759273144E-02
   0.1610504514E+01  -0.1562812397E+01   0.1006650022E+01   0.5120164041E-02   0.4343097338E-01   0.6650021765E-02   0.0000000000E+00   0.0000000000E+00   0.0000000000E+00   0.6678614875E-02  -0.1079822731E+01   0.6077221432E-02  -0.1569736312E-01  -0.1334415838E-01  -0.3152552690E-02
   0.1608802197E+01  -0.1759826506E+01   0.1007132664E+01   0.4549026506E-02   0.4558626366E-01   0.7132663963E-02   0.0000000000E+00   0.0000000000E+00   0.0000000000E+00  -0.8084321418E-04  -0.1066941225E+01   0.1474612032E-01  -0.2859095022E-01  -0.1199433164E-01  -0.1098506470E-02
   0.1607413128E+01  -0.1956838331E+01   0.1007622239E+01   0.4026727783E-02   0.4771760872E-01   0.7622238984E-02   0.0000000000E+00   0.0000000000E+00   0.0000000000E+00  -0.5597159693E-02  -0.1055784618E+01   0.2074800133E-01  -0.3668038410E-01  -0.1007357212E-01  -0.3212573175E-05
   0.1606192527E+01  -0.2153859133E+01   0.1008124156E+01   0.3535806793E-02   0.4982781724E-01   0.8124156108E-02   0.0000000000E+00   0.0000000000E+00   0.0000000000E+00  -0.1166675679E-01  -0.1047488559E+01   0.2405248599E-01  -0.4054885858E-01  -0.8199670686E-02   0.4316401411E-03
   0.1605082088E+01  -0.2350888960E+01   0.1008641987E+01   0.3057528148E-02   0.5191971033E-01   0.8641986867E-02   0.0000000000E+00   0.0000000000E+00   0.0000000000E+00  -0.1870746739E-01  -0.1042033527E+01   0.2555623354E-01  -0.3987399692E-01  -0.6764618819E-02   0.9138550951E-03
   0.1604084582E+01  -0.2547921850E+01   0.1009177402E+01   0.2571671707E-02   0.5399637033E-01   0.9177401597E-02   0.0000000000E+00   0.0000000000E+00   0.0000000000E+00  -0.2776274469E-01  -0.1040302271E+01   0.2517094957E-01  -0.3621955074E-01  -0.5965663619E-02   0.1396313130E-02
   0.1603232176E+01  -0.2744936363E+01   0.1009736888E+01   0.2058536495E-02   0.5606136683E-01   0.9736887703E-02   0.0000000000E+00   0.0000000000E+00   0.0000000000E+00  -0.3985215608E-01  -0.1042510876E+01   0.2430068667E-01  -0.2531810927E-01  -0.5702693168E-02   0.3825756656E-03
   0.1602423894E+01  -0.2941880695E+01   0.1010326504E+01   0.1479853633E-02   0.5811930518E-01   0.1032650361E-01   0.0000000000E+00   0.0000000000E+00   0.0000000000E+00  -0.5083739374E-01  -0.1044378598E+01   0.2848562119E-01  -0.1566208413E-01  -0.1016823276E-01   0.1526213553E-02
   0.1437803319E+01  -0.7767572810E+00   0.1005025959E+01   0.7055688640E-02   0.3503425803E-01   0.5025959483E-02   0.0000000000E+00   0.0000000000E+00   0.0000000000E+00   0.6241990519E-01  -0.1156439928E+01  -0.3364415961E-01   0.7064959216E-01  -0.5630381455E-02  -0.1534924282E-01
   0.1427170726E+01  -0.9747430635E+00   0.1005460977E+01   0.6116485896E-02   0.3739327647E-01   0.5460976591E-02   0.0000000000E+00   0.0000000000E+00   0.0000000000E+00   0.4910778925E-01  -0.1141492041E+01  -0.1929509113E-01   0.3483257739E-01  -0.1047095916E-01  -0.1971224787E-01
   0.1420049193E+01  -0.1172011375E+01   0.1005924759E+01   0.5319242780E-02   0.3970313464E-01   0.5924759450E-02   0.0000000000E+00   0.0000000000E+00   0.0000000000E+00   0.4613186681E-01  -0.1110553297E+01   0.8519779678E-02   0.5688224146E-02  -0.1453228142E-01  -0.1334790221E-01
   0.1415393158E+01  -0.1368857461E+01   0.1006389027E+01   0.4637757969E-02   0.4196254922E-01   0.6389027446E-02   0.0000000000E+00   0.0000000000E+00   0.0000000000E+00   0.3910886010E-01  -0.1084432869E+01   0.2780267730E-01  -0.1687797120E-01  -0.1572487888E-01  -0.6992806462E-02
   0.1412254633E+01  -0.1565498937E+01   0.1006848996E+01   0.4040422922E-02   0.4417504293E-01   0.6848995720E-02   0.0000000000E+00   0.0000000000E+00   0.0000000000E+00   0.3097853734E-01  -0.1063366018E+01   0.3892736433E-01  -0.3279602650E-01  -0.1485001372E-01  -0.2155897409E-02
   0.1409973748E+01  -0.1762061579E+01   0.1007313808E+01   0.3504637938E-02   0.4634608114E-01   0.7313807787E-02   0.0000000000E+00   0.0000000000E+00   0.0000000000E+00   0.1997747886E-01  -0.1049348270E+01   0.4206171481E-01  -0.4345246743E-01  -0.1308650420E-01   0.4336565943E-03
   0.1408149631E+01  -0.1958605930E+01   0.1007789824E+01   0.3011021023E-02   0.4848153956E-01   0.7789824226E-02   0.0000000000E+00   0.0000000000E+00   0.0000000000E+00   0.9288353690E-02  -0.1039146096E+01   0.4176424217E-01  -0.4953087462E-01  -0.1112028114E-01   0.1700474297E-02
   0.1406572210E+01  -0.2155156974E+01   0.1008283946E+01   0.2544269817E-02   0.5058729557E-01   0.8283945712E-02   0.0000000000E+00   0.0000000000E+00   0.0000000000E+00  -0.3005652566E-02  -0.1033995184E+01   0.3815142962E-01  -0.5173620379E-01  -0.9572016607E-02   0.2110761715E-02
   0.1405163716E+01  -0.2351720861E+01   0.1008800217E+01   0.2087305620E-02   0.5266899893E-01   0.8800216678E-02   0.0000000000E+00   0.0000000000E+00   0.0000000000E+00  -0.1453276576E-01  -0.1031035243E+01   0.3489486241E-01  -0.4968446371E-01  -0.8903678479E-02   0.2122222692E-02
   0.1403935451E+01  -0.2548285718E+01   0.1009340571E+01   0.1621380802E-02   0.5473209184E-01   0.9340571137E-02   0.0000000000E+00   0.0000000000E+00   0.0000000000E+00  -0.3100151568E-01  -0.1035552731E+01   0.2745601255E-01  -0.4489702261E-01  -0.9460645069E-02   0.3551394284E-02
   0.1402942634E+01  -0.2744802980E+01   0.1009905915E+01   0.1129364363E-02   0.5678173990E-01   0.9905915403E-02   0.0000000000E+00   0.0000000000E+00   0.0000000000E+00  -0.3713245334E-01  -0.1031842902E+01   0.3195407057E-01  -0.3416105266E-01  -0.1029719044E-01   0.1288778833E-02
   0.1402052000E+01  -0.2941176903E+01   0.1010525586E+01   0.5800303125E-03   0.5882309688E-01   0.1052558600E-01   0.0000000000E+00   0.0000000000E+00   0.0000000000E+00  -0.6239231770E-01  -0.1045137348E+01   0.2742121614E-01  -0.2494426073E-01  -0.1603141994E-01   0.4203550848E-03
   0.1246671254E+01  -0.7835437998E+00   0.1005277806E+01   0.5761444240E-02   0.3567471623E-01   0.5277806126E-02   0.0000000000E+00   0.0000000000E+00   0.0000000000E+00   0.6381284457E-01  -0.1191783811E+01  -0.2206819182E-01   0.3529645497E-01  -0.1337636939E-01  -0.2494052472E-01
   0.1232712184E+01  -0.9822674959E+00   0.1005708150E+01   0.4861983533E-02   0.3814042410E-01   0.5708150275E-02   0.0000000000E+00   0.0000000000E+00   0.0000000000E+00   0.6253764819E-01  -0.1155419475E+01   0.6956046658E-02  -0.4762946857E-02  -0.1612973436E-01  -0.2357594612E-01
   0.1223609297E+01  -0.1179491335E+01   0.1006155194E+01   0.4124607178E-02   0.4052132494E-01   0.6155193914E-02   0.0000000000E+00   0.0000000000E+00   0.0000000000E+00   0.6217918017E-01  -0.1111712948E+01   0.3819286200E-01  -0.3210670357E-01  -0.1729900220E-01  -0.1395582194E-01
   0.1217764099E+01  -0.1375797248E+01   0.1006594292E+01   0.3502689097E-02   0.4282143236E-01   0.6594292137E-02   0.0000000000E+00   0.0000000000E+00   0.0000000000E+00   0.5755074417E-01  -0.1074332979E+01   0.5859741949E-01  -0.5068997982E-01  -0.1538211931E-01  -0.5120587063E-02
   0.1213872789E+01  -0.1571647348E+01   0.1007026823E+01   0.2955558577E-02   0.4505044187E-01   0.7026823097E-02   0.0000000000E+00   0.0000000000E+00   0.0000000000E+00   0.4704248091E-01  -0.1048186607E+01   0.6510505952E-01  -0.6156621858E-01  -0.1171138851E-01   0.6104593247E-03
   0.1211071338E+01  -0.1767309606E+01   0.1007468346E+01   0.2461278030E-02   0.4721945384E-01   0.7468346087E-02   0.0000000000E+00   0.0000000000E+00   0.0000000000E+00   0.3032904232E-01  -0.1033755005E+01   0.6052028570E-01  -0.6696762850E-01  -0.7961815217E-02   0.3241394353E-02
   0.1208846185E+01  -0.1962912890E+01   0.1007926982E+01   0.2001024826E-02   0.4933895982E-01   0.7926982416E-02   0.0000000000E+00   0.0000000000E+00   0.0000000000E+00   0.1406895565E-01  -0.1024451939E+01   0.5297227839E-01  -0.6761973553E-01  -0.4944969882E-02   0.4145377434E-02
   0.1206936614E+01  -0.2158512253E+01   0.1008411223E+01   0.1562134479E-02   0.5141888662E-01   0.8411222660E-02   0.0000000000E+00   0.0000000000E+00   0.0000000000E+00  -0.4284175807E-02  -0.1022069268E+01   0.4223243625E-01  -0.6445185904E-01  -0.3107775254E-02   0.4006534186E-02
   0.1205251367E+01  -0.2354121596E+01   0.1008925682E+01   0.1129297376E-02   0.5346831384E-01   0.8925681658E-02   0.0000000000E+00   0.0000000000E+00   0.0000000000E+00  -0.1988038841E-01  -0.1021144820E+01   0.3444308630E-01  -0.5719552829E-01  -0.2536134752E-02   0.2861493620E-02
   0.1203811723E+01  -0.2549716740E+01   0.1009473662E+01   0.6861234082E-03   0.5549547030E-01   0.9473662255E-02   0.0000000000E+00   0.0000000000E+00   0.0000000000E+00  -0.4452460536E-01  -0.1032599685E+01   0.1947925692E-01  -0.4632003044E-01  -0.3471573108E-02   0.4438560120E-02
   0.1202687721E+01  -0.2745217314E+01   0.1010048093E+01   0.2156312146E-03   0.5750752552E-01   0.1004809291E-01   0.0000000000E+00   0.0000000000E+00   0.0000000000E+00  -0.4865731694E-01  -0.1027073493E+01   0.2563595680E-01  -0.3104401078E-01  -0.4997847886E-02   0.1158576180E-02
   0.1201738243E+01  -0.2940489469E+01   0.1010694921E+01  -0.2951566766E-03   0.5951053121E-01   0.1069492076E-01   0.0000000000E+00   0.0000000000E+00   0.0000000000E+00  -0.8766657135E-01  -0.1052255493E+01   0.1136735496E-01  -0.1766858154E-01  -0.8876194442E-02  -0.1345904678E-02
   0.1052755272E+01  -0.7964724690E+00   0.1005549596E+01   0.4403392403E-02   0.3662033997E-01   0.5549596218E-02   0.0000000000E+00   0.0000000000E+00   0.0000000000E+00   0.8414172954E-01  -0.1206769244E+01   0.1520905239E-01  -0.1751786395E-01  -0.4436952250E-01  -0.3442400801E-01
   0.1036105786E+01  -0.9965336764E+00   0.1005949511E+01   0.3564986204E-02   0.3920383355E-01   0.5949510618E-02   0.0000000000E+00   0.0000000000E+00   0.0000000000E+00   0.1005510971E+00  -0.1135117278E+01   0.6240250719E-01  -0.6497295037E-01  -0.3208164834E-01  -0.2007187621E-01
   0.1025724971E+01  -0.1193491429E+01   0.1006355197E+01   0.2907720899E-02   0.4163888091E-01   0.6355196777E-02   0.0000000000E+00   0.0000000000E+00   0.0000000000E+00   0.7528660845E-01  -0.1102219267E+01   0.6699998467E-01  -0.9126157659E-01  -0.2116907574E-01  -0.9721797586E-02
   0.1019196697E+01  -0.1388684327E+01   0.1006744047E+01   0.2358976574E-02   0.4394609319E-01   0.6744046958E-02   0.0000000000E+00   0.0000000000E+00   0.0000000000E+00   0.5800954622E-01  -0.1066099237E+01   0.7005831510E-01  -0.1025969297E+00  -0.8275039781E-02   0.1500362062E-02
   0.1014872448E+01  -0.1583044891E+01   0.1007130719E+01   0.1871248127E-02   0.4614853878E-01   0.7130718896E-02   0.0000000000E+00   0.0000000000E+00   0.0000000000E+00   0.3137909590E-01  -0.1047198267E+01   0.5562365799E-01  -0.1036419554E+00   0.2336339728E-02   0.6395036529E-02
   0.1011748706E+01  -0.1777073242E+01   0.1007537798E+01   0.1425415810E-02   0.4826774829E-01   0.7537798426E-02   0.0000000000E+00   0.0000000000E+00   0.0000000000E+00   0.4237565978E-02  -0.1036559207E+01   0.3690280624E-01  -0.9812697212E-01   0.9448779564E-02   0.7623748519E-02
   0.1009253936E+01  -0.1970994245E+01   0.1007974915E+01   0.1003696320E-02   0.5032180521E-01   0.7974915173E-02   0.0000000000E+00   0.0000000000E+00   0.0000000000E+00  -0.1749982716E-01  -0.1028191978E+01   0.2149675624E-01  -0.8791802367E-01   0.1275503797E-01   0.6784908393E-02
   0.1007110221E+01  -0.2164895858E+01   0.1008450217E+01   0.5967407947E-03   0.5232683215E-01   0.8450216680E-02   0.0000000000E+00   0.0000000000E+00   0.0000000000E+00  -0.3595448604E-01  -0.1023211672E+01   0.9537308605E-02  -0.7483211387E-01   0.1258328177E-01   0.4894582106E-02
   0.1005226753E+01  -0.2358799184E+01   0.1008967000E+01   0.1913533782E-03   0.5429628592E-01   0.8967000082E-02   0.0000000000E+00   0.0000000000E+00   0.0000000000E+00  -0.4445285653E-01  -0.1013721724E+01   0.8781228913E-02  -0.5978102141E-01   0.8675325923E-02   0.1888060803E-02
   0.1003633593E+01  -0.2552671825E+01   0.1009528055E+01  -0.2253269690E-03   0.5624111541E-01   0.9528054848E-02   0.0000000000E+00   0.0000000000E+00   0.0000000000E+00  -0.5375308017E-01  -0.1008635628E+01   0.1030652176E-01  -0.4271711885E-01   0.1364420130E-02   0.1483471881E-02
   0.1002404869E+01  -0.2746423021E+01   0.1010119949E+01  -0.6720412098E-03   0.5816958890E-01   0.1011994939E-01   0.0000000000E+00   0.0000000000E+00   0.0000000000E+00  -0.4394856091E-01  -0.9882701268E+00   0.3176695807E-01  -0.2591936127E-01  -0.8024263021E-02  -0.1429759163E-02
   0.1001436310E+01  -0.2939911574E+01   0.1010771636E+01  -0.1141109911E-02   0.6008842633E-01   0.1077163623E-01   0.0000000000E+00   0.0000000000E+00   0.0000000000E+00  -0.7251376611E-01  -0.1004538664E+01   0.2495830953E-01  -0.1381886087E-01  -0.9174199394E-02  -0.3019259531E-02
   0.8521391578E+00  -0.8180153052E+00   0.1005840032E+01   0.2986175794E-02   0.3816631681E-01   0.5840031901E-02   0.0000000000E+00   0.0000000000E+00   0.0000000000E+00  -0.7397901942E-01  -0.1340367233E+01  -0.8778635345E-01  -0.1889379479E+00  -0.9796648687E-02  -0.4225008049E-01
   0.8351069978E+00  -0.1019280425E+01   0.1006099446E+01   0.2237467831E-02   0.4083121502E-01   0.6099446161E-02   0.0000000000E+00   0.0000000000E+00   0.0000000000E+00  -0.2394838086E-01  -0.1238250477E+01  -0.3894652264E-01  -0.2017569133E+00   0.2112269466E-01  -0.6842214731E-02
   0.8249979661E+00  -0.1214988190E+01   0.1006410687E+01   0.1686041130E-02   0.4324273019E-01   0.6410687225E-02   0.0000000000E+00   0.0000000000E+00   0.0000000000E+00  -0.5743486074E-01  -0.1201538468E+01  -0.5633236754E-01  -0.1990737838E+00   0.3624722534E-01  -0.2340852656E-02
   0.8187240036E+00  -0.1408070097E+01   0.1006715582E+01   0.1222518608E-02   0.4546355298E-01   0.6715581598E-02   0.0000000000E+00   0.0000000000E+00   0.0000000000E+00  -0.4414801921E-01  -0.1124297391E+01  -0.3548921669E-01  -0.1790143251E+00   0.4292993318E-01   0.1049929087E-01
   0.8145401113E+00  -0.1600038734E+01   0.1007048467E+01   0.8017652987E-03   0.4754331645E-01   0.7048466508E-02   0.0000000000E+00   0.0000000000E+00   0.0000000000E+00  -0.5168255868E-01  -0.1079023351E+01  -0.3870398304E-01  -0.1556222204E+00   0.4553014516E-01   0.1113511370E-01
   0.8114620750E+00  -0.1791601571E+01   0.1007423909E+01   0.4095139639E-03   0.4952009925E-01   0.7423908893E-02   0.0000000000E+00   0.0000000000E+00   0.0000000000E+00  -0.6742575600E-01  -0.1052646212E+01  -0.5064398110E-01  -0.1299483317E+00   0.4692513499E-01   0.9820098470E-02
   0.8089590172E+00  -0.1983045558E+01   0.1007846929E+01   0.3040816397E-04   0.5142166228E-01   0.7846929216E-02   0.0000000000E+00   0.0000000000E+00   0.0000000000E+00  -0.8808324166E-01  -0.1040859528E+01  -0.6686826529E-01  -0.1021676194E+00   0.4854997543E-01   0.6556445788E-02
   0.8067843077E+00  -0.2174465169E+01   0.1008319560E+01  -0.3413202737E-03   0.5326987103E-01   0.8319559956E-02   0.0000000000E+00   0.0000000000E+00   0.0000000000E+00  -0.1126279669E+00  -0.1041358061E+01  -0.8536198418E-01  -0.7187002389E-01   0.5196075637E-01   0.1973696982E-02
   0.8048632260E+00  -0.2365876755E+01   0.1008847384E+01  -0.7158400103E-03   0.5508247458E-01   0.8847384432E-02   0.0000000000E+00   0.0000000000E+00   0.0000000000E+00  -0.1390594102E+00  -0.1050239135E+01  -0.1023425624E+00  -0.3749308827E-01   0.5676896986E-01  -0.3862594471E-02
   0.8032307601E+00  -0.2557248012E+01   0.1009434269E+01  -0.1101913918E-02   0.5687437823E-01   0.9434268609E-02   0.0000000000E+00   0.0000000000E+00   0.0000000000E+00  -0.1649235527E+00  -0.1063034547E+01  -0.1138387668E+00   0.3489984326E-02   0.6142767401E-01  -0.1122663009E-01
   0.8019577808E+00  -0.2748508477E+01   0.1010073024E+01  -0.1517957220E-02   0.5865690280E-01   0.1007302385E-01   0.0000000000E+00   0.0000000000E+00   0.0000000000E+00  -0.2003500975E+00  -0.1087453078E+01  -0.1291749448E+00   0.4960183389E-01   0.5891517879E-01  -0.1152148718E-01
   0.8010117355E+00  -0.2939563002E+01   0.1010705016E+01  -0.1955276462E-02   0.6043699778E-01   0.1070501627E-01   0.0000000000E+00   0.0000000000E+00   0.0000000000E+00  -0.2060078960E+00  -0.1088351969E+01  -0.1240475147E+00   0.9413371105E-01   0.6432619933E-01  -0.5823712097E-02
   0.6396331092E+00  -0.8505671601E+00   0.1005399487E+01   0.1572003167E-02   0.4106861590E-01   0.5399487096E-02   0.0000000000E+00   0.0000000000E+00   0.0000000000E+00  -0.8468896915E+00  -0.2009578223E+01  -0.9057609115E+00  -0.3321026751E+00   0.1175852569E+00  -0.4646408468E-01
   0.6277971043E+00  -0.1049653140E+01   0.1005636636E+01   0.9335652755E-03   0.4339793963E-01   0.5636635816E-02   0.0000000000E+00   0.0000000000E+00   0.0000000000E+00  -0.4680001839E+00  -0.1550713070E+01  -0.5248560320E+00  -0.2958350360E+00   0.8232021746E-01  -0.1328476087E-01
   0.6205880832E+00  -0.1241515129E+01   0.1005948463E+01   0.5017711849E-03   0.4546478058E-01   0.5948462539E-02   0.0000000000E+00   0.0000000000E+00   0.0000000000E+00  -0.3733043956E+00  -0.1399800781E+01  -0.4230932255E+00  -0.2625284493E+00   0.7539752285E-01  -0.1232437191E-01
   0.6160386338E+00  -0.1431018362E+01   0.1006304988E+01   0.1266728411E-03   0.4737030833E-01   0.6304987611E-02   0.0000000000E+00   0.0000000000E+00   0.0000000000E+00  -0.2896036228E+00  -0.1260694282E+01  -0.3258772018E+00  -0.2183697089E+00   0.6353415977E-01  -0.5098789846E-02
   0.6128559311E+00  -0.1619728190E+01   0.1006692288E+01  -0.2259409352E-03   0.4917278039E-01   0.6692288324E-02   0.0000000000E+00   0.0000000000E+00   0.0000000000E+00  -0.2552164153E+00  -0.1185691252E+01  -0.2819169704E+00  -0.1823320413E+00   0.5516470691E-01  -0.1963555144E-02
   0.6103276199E+00  -0.1808272689E+01   0.1007104376E+01  -0.5652720670E-03   0.5090395144E-01   0.7104376355E-02   0.0000000000E+00   0.0000000000E+00   0.0000000000E+00  -0.2220332796E+00  -0.1119344404E+01  -0.2417814032E+00  -0.1499917322E+00   0.4868703927E-01  -0.2580784866E-03
   0.6081195753E+00  -0.1996824464E+01   0.1007541623E+01  -0.9014927375E-03   0.5257777572E-01   0.7541623056E-02   0.0000000000E+00   0.0000000000E+00   0.0000000000E+00  -0.1908635528E+00  -0.1059344983E+01  -0.2052986519E+00  -0.1215102046E+00   0.4307362308E-01   0.9619084597E-03
   0.6060892314E+00  -0.2185397485E+01   0.1007994794E+01  -0.1238050602E-02   0.5420078499E-01   0.7994793514E-02   0.0000000000E+00   0.0000000000E+00   0.0000000000E+00  -0.1488579067E+00  -0.9913265466E+00  -0.1612387033E+00  -0.9540850505E-01   0.4095553266E-01   0.9662584893E-03
   0.6042163913E+00  -0.2373990640E+01   0.1008472396E+01  -0.1580064722E-02   0.5577362966E-01   0.8472395831E-02   0.0000000000E+00   0.0000000000E+00   0.0000000000E+00  -0.9468819907E-01  -0.9110771631E+00  -0.1056576124E+00  -0.6946265204E-01   0.4141888125E-01  -0.7540959048E-03
   0.6025604901E+00  -0.2562590373E+01   0.1008987633E+01  -0.1932948851E-02   0.5729554746E-01   0.8987633210E-02   0.0000000000E+00   0.0000000000E+00   0.0000000000E+00  -0.1000265919E-01  -0.7996880767E+00  -0.1799101915E-01  -0.4235759153E-01   0.4539376166E-01  -0.1265274048E-01
   0.6012195601E+00  -0.2751176428E+01   0.1009584142E+01  -0.2306674876E-02   0.5877035204E-01   0.9584142039E-02   0.0000000000E+00   0.0000000000E+00   0.0000000000E+00   0.3001206948E-01  -0.7318324386E+00   0.3751702967E-01  -0.6443680801E-02   0.4946372235E-01  -0.1941134222E-01
   0.6002756035E+00  -0.2939784238E+01   0.1010164319E+01  -0.2731593479E-02   0.6021576240E-01   0.1016431918E-01   0.0000000000E+00   0.0000000000E+00   0.0000000000E+00   0.7730235859E-01  -0.6791080207E+00   0.8062471975E-01   0.3349369955E-01   0.5128138220E-01  -0.1547954259E-01
   0.3993472379E+00  -0.2753704535E+01   0.1009564247E+01  -0.3050573071E-02   0.5966569451E-01   0.9564247264E-02   0.0000000000E+00   0.0000000000E+00   0.0000000000E+00  -0.2130701113E+00  -0.9510740082E+00  -0.1990648334E+00  -0.8404871061E-01   0.2138947033E-02  -0.1555737244E-01
   0.3990369083E+00  -0.2938961762E+01   0.1010174420E+01  -0.3459310729E-02   0.6103823759E-01   0.1017441982E-01   0.0000000000E+00   0.0000000000E+00   0.0000000000E+00  -0.2041816077E+00  -0.9248339956E+00  -0.1859810272E+00  -0.6762472666E-01  -0.1381194671E-01  -0.1746445422E-01
   0.1934718719E+00  -0.2754189758E+01   0.1009568692E+01  -0.3796882057E-02   0.6050560151E-01   0.9568692112E-02   0.0000000000E+00   0.0000000000E+00   0.0000000000E+00  -0.4494382611E-02  -0.7438754161E+00  -0.1456460740E-02  -0.1103643897E+00  -0.4174917699E-01  -0.1746373418E-01
   0.1942514337E+00  -0.2938143343E+01   0.1010303176E+01  -0.4154607268E-02   0.6185665705E-01   0.1030317629E-01   0.0000000000E+00   0.0000000000E+00   0.0000000000E+00  -0.9789537406E-01  -0.8061093391E+00  -0.5838724932E-01  -0.1187705869E+00  -0.6636692934E-01  -0.3514781015E-01
   0.4002897175E+00  -0.2568259360E+01   0.1008972770E+01  -0.2729233549E-02   0.5824577976E-01   0.8972770329E-02   0.0000000000E+00   0.0000000000E+00   0.0000000000E+00  -0.2246995419E+00  -0.9939983022E+00  -0.2261079913E+00  -0.9618231236E-01   0.2186209622E-02  -0.8869857866E-02
   0.1941410248E+00  -0.2570001942E+01   0.1008973305E+01  -0.3521180188E-02   0.5910743815E-01   0.8973304630E-02   0.0000000000E+00   0.0000000000E+00   0.0000000000E+00  -0.1038992818E+00  -0.8684506882E+00  -0.1107757563E+00  -0.9985512375E-01  -0.3561099889E-01  -0.9676504034E-03
   0.4015916906E+00  -0.2382735485E+01   0.1008426572E+01  -0.2411363436E-02   0.5678916528E-01   0.8426572351E-02   0.0000000000E+00   0.0000000000E+00   0.0000000000E+00  -0.2271009138E+00  -0.1014376791E+01  -0.2364435853E+00  -0.9895917959E-01   0.6133096191E-02  -0.3354933460E-02
   0.1952210801E+00  -0.2385900197E+01   0.1008409281E+01  -0.3229276904E-02   0.5768186325E-01   0.8409281315E-02   0.0000000000E+00   0.0000000000E+00   0.0000000000E+00  -0.1410323639E+00  -0.9175706223E+00  -0.1550684340E+00  -0.8349060895E-01  -0.2382429044E-01  -0.3112769874E-02
   0.4030874120E+00  -0.2197178153E+01   0.1007900548E+01  -0.2100998986E-02   0.5530998715E-01   0.7900548414E-02   0.0000000000E+00   0.0000000000E+00   0.0000000000E+00  -0.2128229079E+00  -0.1013298575E+01  -0.2306040360E+00  -0.1085916773E+00   0.1269073301E-01  -0.1243032261E-02
   0.1964827615E+00  -0.2202114795E+01   0.1007846110E+01  -0.2939270483E-02   0.5625322517E-01   0.7846109520E-02   0.0000000000E+00   0.0000000000E+00   0.0000000000E+00  -0.1719915600E+00  -0.9499884129E+00  -0.1951871158E+00  -0.7890084529E-01  -0.9912636079E-02  -0.5058726512E-02
   0.4047055666E+00  -0.2011609948E+01   0.1007393251E+01  -0.1795458390E-02   0.5381592153E-01   0.7393251326E-02   0.0000000000E+00   0.0000000000E+00   0.0000000000E+00  -0.2059377626E+00  -0.1017009920E+01  -0.2322129701E+00  -0.1228430267E+00   0.2219208345E-01  -0.1348815269E-02
   0.1988967643E+00  -0.2021834812E+01   0.1007279537E+01  -0.2651841692E-02   0.5486205762E-01   0.7279537322E-02   0.0000000000E+00   0.0000000000E+00   0.0000000000E+00  -0.1912790178E+00  -0.9632776011E+00  -0.2284843546E+00  -0.8279346490E-01   0.6666098576E-02  -0.1035217281E-01
   0.4070446298E+00  -0.1828410560E+01   0.1006893203E+01  -0.1498063198E-02   0.5232555046E-01   0.6893202677E-02   0.0000000000E+00   0.0000000000E+00   0.0000000000E+00  -0.1924578100E+00  -0.1015652668E+01  -0.2323023455E+00  -0.1441263355E+00   0.3518328179E-01  -0.1149573519E-02
   0.2001013993E+00  -0.1837955731E+01   0.1006671867E+01  -0.2378708719E-02   0.5347988879E-01   0.6671866771E-02   0.0000000000E+00   0.0000000000E+00   0.0000000000E+00  -0.1827761419E+00  -0.9463098804E+00  -0.2446066239E+00  -0.9490514196E-01   0.2377831714E-01  -0.1420444932E-01
   0.4086389430E+00  -0.1641755285E+01   0.1006403842E+01  -0.1200597982E-02   0.5080002488E-01   0.6403842390E-02   0.0000000000E+00   0.0000000000E+00   0.0000000000E+00  -0.1887040473E+00  -0.1024897453E+01  -0.2423997626E+00  -0.1732134025E+00   0.5059141838E-01   0.1042695756E-02
   0.2028406530E+00  -0.1660092668E+01   0.1006067926E+01  -0.2109530950E-02   0.5218188176E-01   0.6067926007E-02   0.0000000000E+00   0.0000000000E+00   0.0000000000E+00  -0.1599143135E+00  -0.9079557408E+00  -0.2493001809E+00  -0.1143035199E+00   0.4271680053E-01  -0.1519612602E-01
   0.4110159126E+00  -0.1457468192E+01   0.1005927032E+01  -0.9050523887E-03   0.4927428792E-01   0.5927032106E-02   0.0000000000E+00   0.0000000000E+00   0.0000000000E+00  -0.1950584679E+00  -0.1048638138E+01  -0.2669557953E+00  -0.2138127511E+00   0.6861154364E-01  -0.2083936335E-02
   0.2045423211E+00  -0.1480359039E+01   0.1005442018E+01  -0.1848536869E-02   0.5093173136E-01   0.5442017730E-02   0.0000000000E+00   0.0000000000E+00   0.0000000000E+00  -0.1279247712E+00  -0.8589417411E+00  -0.2512602950E+00  -0.1459664228E+00   0.6147553189E-01  -0.1217746810E-01
   0.4139105433E+00  -0.1272937705E+01   0.1005439993E+01  -0.6099287402E-03   0.4772109539E-01   0.5439992507E-02   0.0000000000E+00   0.0000000000E+00   0.0000000000E+00  -0.1873112184E+00  -0.1065039809E+01  -0.2861194947E+00  -0.2664127593E+00   0.8841449736E-01  -0.3507986622E-02
   0.2052438346E+00  -0.1293694191E+01   0.1004781741E+01  -0.1598811392E-02   0.4970425890E-01   0.4781740651E-02   0.0000000000E+00   0.0000000000E+00   0.0000000000E+00  -0.7214181988E-01  -0.7872704765E+00  -0.2370598775E+00  -0.1876084233E+00   0.7817302664E-01  -0.8594296138E-02
   0.4178868691E+00  -0.1088176724E+01   0.1004932167E+01  -0.2898118608E-03   0.4613328635E-01   0.4932167268E-02   0.0000000000E+00   0.0000000000E+00   0.0000000000E+00  -0.2408035658E+00  -0.1144171816E+01  -0.3734298273E+00  -0.3250831571E+00   0.1162054493E+00  -0.2321566939E-01
   0.2078674430E+00  -0.1115793636E+01   0.1004110834E+01  -0.1348585049E-02   0.4859061405E-01   0.4110834195E-02   0.0000000000E+00   0.0000000000E+00   0.0000000000E+00  -0.5431748510E-01  -0.7569137350E+00  -0.2701328944E+00  -0.2369796731E+00   0.9068421078E-01  -0.9104355679E-02
   0.4237400238E+00  -0.9079890795E+00   0.1004290717E+01   0.1306478015E-03   0.4455632448E-01   0.4290716690E-02   0.0000000000E+00   0.0000000000E+00   0.0000000000E+00  -0.1554654142E+00  -0.1082722026E+01  -0.3542490099E+00  -0.3797906189E+00   0.1682631185E+00  -0.5798050619E-01
   0.2114618534E+00  -0.9497999568E+00   0.1003417729E+01  -0.1063856583E-02   0.4760759921E-01   0.3417729151E-02   0.0000000000E+00   0.0000000000E+00   0.0000000000E+00   0.5408999628E-01  -0.6301456135E+00  -0.2215099089E+00  -0.2697596102E+00   0.8271394529E-01  -0.1187126471E-01
   0.4269087836E+00  -0.7415103337E+00   0.1003689250E+01   0.6637495862E-03   0.4317635127E-01   0.3689249573E-02   0.0000000000E+00   0.0000000000E+00   0.0000000000E+00  -0.7552636489E-01  -0.1003260214E+01  -0.3330573919E+00  -0.4679018325E+00   0.2090874658E+00  -0.1258513716E-01
   0.2128321354E+00  -0.8061031956E+00   0.1002786994E+01  -0.7188045726E-03   0.4682687340E-01   0.2786993618E-02   0.0000000000E+00   0.0000000000E+00   0.0000000000E+00  -0.1867861146E+00  -0.9009691244E+00  -0.5393426471E+00  -0.3131707226E+00   0.6438829790E-01   0.2637025434E-01
   0.1864143582E+00  -0.6798870286E+00   0.1002317856E+01  -0.6825508130E-03   0.4640129037E-01   0.2317855833E-02   0.0000000000E+00   0.0000000000E+00   0.0000000000E+00   0.8577454737E+00   0.8021295382E-01   0.4126055803E+00  -0.3492770679E+00   0.7735149644E-01   0.7874243379E-01
   0.3657274629E+00  -0.6120209591E+00   0.1003176477E+01   0.7033729364E-03   0.4315645486E-01   0.3176477430E-02   0.0000000000E+00   0.0000000000E+00   0.0000000000E+00   0.1933669651E+01   0.8486448763E+00   0.1512359896E+01  -0.4674755762E+00   0.2593410508E+00   0.1629723328E+00
   0.1804403333E+01   0.8731173460E+00   0.1002473155E+01   0.9223843465E-02   0.1637901702E-01   0.2473154727E-02   0.0000000000E+00   0.0000000000E+00   0.0000000000E+00   0.1275684177E+00  -0.9783037948E+00   0.2213409768E-01  -0.7768446430E-01   0.6957109366E-03   0.2768471838E-01
   0.1815332492E+01   0.6618960136E+00   0.1002510329E+01   0.1035984237E-01   0.1866009162E-01   0.2510329121E-02   0.0000000000E+00   0.0000000000E+00   0.0000000000E+00   0.1087513828E+00  -0.1017534987E+01  -0.2725339693E-01  -0.9472157750E-01   0.9139689582E-02  -0.3770580599E-02
   0.2011576683E+01   0.6622819467E+00   0.1002133116E+01   0.1157668273E-01   0.1922990467E-01   0.2133116016E-02   0.0000000000E+00   0.0000000000E+00   0.0000000000E+00   0.1591859295E+00  -0.9224640045E+00  -0.1499730991E-02  -0.5657865754E-01  -0.7385442992E-03   0.1435444942E-01
   0.2010452933E+01   0.8735981137E+00   0.1002199415E+01   0.1045293254E-01   0.1706726875E-01   0.2199414662E-02   0.0000000000E+00   0.0000000000E+00   0.0000000000E+00   0.1273193173E+00  -0.9507164094E+00   0.1054329299E-01  -0.5490546323E-01   0.3379914131E-04   0.3973477310E-01
   0.1826480897E+01   0.4506051615E+00   0.1002829256E+01   0.1143148732E-01   0.2093524454E-01   0.2829255684E-02   0.0000000000E+00   0.0000000000E+00   0.0000000000E+00  -0.3225937593E-01  -0.1128417198E+01  -0.1208851440E+00  -0.8724971797E-01   0.7496648618E-02  -0.3211516964E-01
   0.2012520414E+01   0.4505327355E+00   0.1002323541E+01   0.1252041364E-01   0.2134403653E-01   0.2323541342E-02   0.0000000000E+00   0.0000000000E+00   0.0000000000E+00   0.9125339933E-01  -0.9486650125E+00  -0.4388277811E-01  -0.4272910263E-01  -0.1051379266E-01  -0.1217315231E-01
   0.1834001060E+01   0.2405476036E+00   0.1003229027E+01   0.1218962002E-01   0.2316707958E-01   0.3229027087E-02   0.0000000000E+00   0.0000000000E+00   0.0000000000E+00  -0.1198581460E+00  -0.1177209684E+01  -0.1478697628E+00  -0.5508624243E-01  -0.3583094829E-02  -0.2132148564E-01
   0.2013155830E+01   0.2400239314E+00   0.1002622135E+01   0.1315582965E-01   0.2338278843E-01   0.2622134561E-02   0.0000000000E+00   0.0000000000E+00   0.0000000000E+00   0.5946622642E-01  -0.9335847831E+00  -0.3275690651E-01  -0.2733479361E-01  -0.2927006374E-01  -0.8906851549E-02
   0.1597089442E+01   0.8729548833E+00   0.1002668692E+01   0.7956771889E-02   0.1601085833E-01   0.2668691889E-02   0.0000000000E+00   0.0000000000E+00   0.0000000000E+00   0.1336312997E+00  -0.1008214611E+01   0.2427345582E-01  -0.1021103791E+00   0.5886517131E-02   0.3705073106E-01
   0.1618541350E+01   0.6616290053E+00   0.1002736963E+01   0.9105550287E-02   0.1837871834E-01   0.2736963017E-02   0.0000000000E+00   0.0000000000E+00   0.0000000000E+00   0.8519408564E-01  -0.1087355651E+01  -0.5358840575E-01  -0.1377560559E+00   0.2669337292E-01  -0.4065489162E-02
   0.1639785615E+01   0.4503432393E+00   0.1003155198E+01   0.1032694537E-01   0.2075423630E-01   0.3155197532E-02   0.0000000000E+00   0.0000000000E+00   0.0000000000E+00  -0.8727582200E-01  -0.1223251068E+01  -0.1551627282E+00  -0.1382768095E+00   0.3402164429E-01  -0.3939084095E-01
   0.1655128814E+01   0.2397025643E+00   0.1003631459E+01   0.1123175441E-01   0.2310073032E-01   0.3631459071E-02   0.0000000000E+00   0.0000000000E+00   0.0000000000E+00  -0.1434150210E+00  -0.1233128156E+01  -0.1323595967E+00  -0.8610147192E-01   0.2908343916E-01  -0.2594150147E-01
   0.1387760825E+01   0.8728499614E+00   0.1002794130E+01   0.6634424513E-02   0.1574005743E-01   0.2794129790E-02   0.0000000000E+00   0.0000000000E+00   0.0000000000E+00   0.1760872338E+00  -0.9932183800E+00   0.5668362127E-01  -0.7322329760E-01   0.4639129439E-02   0.5585549726E-01
   0.1420838380E+01   0.6604703548E+00   0.1002871974E+01   0.7799530344E-02   0.1819680981E-01   0.2871973635E-02   0.0000000000E+00   0.0000000000E+00   0.0000000000E+00   0.5882310373E-01  -0.1151116889E+01  -0.9260930293E-01  -0.1404110704E+00   0.2721171648E-01  -0.3016941469E-02
   0.1452949299E+01   0.4488356017E+00   0.1003400840E+01   0.9212269367E-02   0.2066334065E-01   0.3400840425E-02   0.0000000000E+00   0.0000000000E+00   0.0000000000E+00  -0.2138285147E+00  -0.1380485265E+01  -0.2676287465E+00  -0.1632435043E+00   0.3557918170E-01  -0.4765085868E-01
   0.1476805691E+01   0.2382666578E+00   0.1003959352E+01   0.1028848116E-01   0.2309353280E-01   0.3959352030E-02   0.0000000000E+00   0.0000000000E+00   0.0000000000E+00  -0.2696399095E+00  -0.1379809719E+01  -0.2230816713E+00  -0.1035325307E+00   0.3418408919E-01  -0.3046850239E-01
   0.1174248150E+01   0.8722551204E+00   0.1002887329E+01   0.5240969625E-02   0.1541069540E-01   0.2887329209E-02   0.0000000000E+00   0.0000000000E+00   0.0000000000E+00   0.2363058391E+00  -0.9753113267E+00   0.9691711141E-01  -0.3661593621E-01  -0.1037516745E-01   0.7769707184E-01
   0.1222144825E+01   0.6568468207E+00   0.1002985902E+01   0.6439664763E-02   0.1800537070E-01   0.2985902233E-02   0.0000000000E+00   0.0000000000E+00   0.0000000000E+00   0.3005661077E-01  -0.1245815255E+01  -0.1486421244E+00  -0.1436103373E+00   0.2422105558E-01  -0.1465895432E-02
   0.1267588901E+01   0.4446864179E+00   0.1003656005E+01   0.8103060821E-02   0.2060002588E-01   0.3656005439E-02   0.0000000000E+00   0.0000000000E+00   0.0000000000E+00  -0.3407778353E+00  -0.1557078258E+01  -0.3840795049E+00  -0.1928313601E+00   0.4555131313E-01  -0.5421689205E-01
   0.1301408483E+01   0.2351741538E+00   0.1004302556E+01   0.9379933323E-02   0.2312538478E-01   0.4302556150E-02   0.0000000000E+00   0.0000000000E+00   0.0000000000E+00  -0.4579329288E+00  -0.1595748011E+01  -0.3718592196E+00  -0.1219286110E+00   0.4237541420E-01  -0.3266172280E-01
   0.9497222632E+00   0.8701263085E+00   0.1003023852E+01   0.3758642201E-02   0.1476520450E-01   0.3023851573E-02   0.0000000000E+00   0.0000000000E+00   0.0000000000E+00   0.4263840429E+00  -0.7208754551E+00   0.3310952117E+00   0.1495011894E+00  -0.3926263529E-01   0.9263170582E-01
   0.1023791423E+01   0.6479176434E+00   0.1003221552E+01   0.5067463353E-02   0.1766110938E-01   0.3221552458E-02   0.0000000000E+00   0.0000000000E+00   0.0000000000E+00   0.1846064275E+00  -0.1039429232E+01   0.6173641844E-01  -0.4310141820E-01  -0.5530737484E-01  -0.2792722055E-01
   0.1088194497E+01   0.4359517905E+00   0.1004009666E+01   0.7047657090E-02   0.2047725645E-01   0.4009665696E-02   0.0000000000E+00   0.0000000000E+00   0.0000000000E+00  -0.3974082494E+00  -0.1624322169E+01  -0.3903738632E+00  -0.1564948167E+00  -0.2814168170E-01  -0.7753991391E-01
   0.1133987740E+01   0.2296180977E+00   0.1004764322E+01   0.8538919692E-02   0.2314157369E-01   0.4764322292E-02   0.0000000000E+00   0.0000000000E+00   0.0000000000E+00  -0.4560771891E+00  -0.1618896908E+01  -0.3052374088E+00  -0.1044536426E+00  -0.1891591575E-01  -0.5046559529E-01
   0.6908684933E+00   0.8623714157E+00   0.1002995577E+01   0.2319988277E-02   0.1255396074E-01   0.2995577186E-02   0.0000000000E+00   0.0000000000E+00   0.0000000000E+00  -0.1350572408E+00  -0.1122713019E+01  -0.1558368891E+00   0.3163346467E+00   0.2521412262E-01  -0.9743752244E-02
   0.8338018262E+00   0.6268143876E+00   0.1004119844E+01   0.4029115174E-02   0.1654269558E-01   0.4119844218E-02   0.0000000000E+00   0.0000000000E+00   0.0000000000E+00  -0.6915729022E-01  -0.1273742177E+01  -0.7900853088E-02   0.7632865896E-01  -0.1553477827E+00  -0.1322064298E+00
   0.9253108033E+00   0.4203053966E+00   0.1004970831E+01   0.6211353279E-02   0.1995667359E-01   0.4970831091E-02   0.0000000000E+00   0.0000000000E+00   0.0000000000E+00  -0.3192137119E+00  -0.1657582463E+01  -0.1884677278E+00  -0.9166858132E-01  -0.1129847693E+00  -0.9150689176E-01
   0.9836186501E+00   0.2215850629E+00   0.1005716841E+01   0.7823679079E-02   0.2299754086E-01   0.5716840857E-02   0.0000000000E+00   0.0000000000E+00   0.0000000000E+00  -0.4908251827E+00  -0.1768962392E+01  -0.2180863080E+00  -0.8661027182E-01  -0.9649084405E-01  -0.6625085704E-01
   0.8550847463E+00   0.2091614523E+00   0.1006849492E+01   0.7214337339E-02   0.2293159733E-01   0.6849492421E-02   0.0000000000E+00   0.0000000000E+00   0.0000000000E+00  -0.2259177355E+00  -0.1663941564E+01   0.1843489961E+00  -0.5963939339E-01  -0.1728461201E+00  -0.1015200104E+00
   0.7384902503E+00   0.1871680094E+00   0.1008450024E+01   0.6713297285E-02   0.2284354742E-01   0.8450024003E-02   0.0000000000E+00   0.0000000000E+00   0.0000000000E+00  -0.1653908728E+01  -0.3291914859E+01  -0.1003589619E+01   0.3429791111E-01  -0.2644078535E+00  -0.1099403038E+00
   0.7931651853E+00   0.3948879618E+00   0.1006047673E+01   0.5613007324E-02   0.1955968877E-01   0.6047672740E-02   0.0000000000E+00   0.0000000000E+00   0.0000000000E+00  -0.1352847542E+00  -0.1578727819E+01   0.1513406437E+00  -0.2503713229E-01  -0.1693269562E+00  -0.1441043531E+00
   0.6816884950E+00   0.3436826286E+00   0.1007582971E+01   0.5439468033E-02   0.1935679865E-01   0.7582970872E-02   0.0000000000E+00   0.0000000000E+00   0.0000000000E+00  -0.1609170243E+01  -0.3128063187E+01  -0.1040287500E+01   0.1113617534E+00  -0.1601867253E+00  -0.3190535934E+00
   0.6972972601E+00   0.5757288076E+00   0.1005048672E+01   0.3631577116E-02   0.1589873763E-01   0.5048671964E-02   0.0000000000E+00   0.0000000000E+00   0.0000000000E+00  -0.1166196982E+01  -0.2422125733E+01  -0.9366025541E+00   0.1536022250E+00  -0.2545983882E-01  -0.1964362906E+00
   0.5885376224E+00   0.4853742783E+00   0.1005795289E+01   0.3791202375E-02   0.1572374129E-01   0.5795288587E-02   0.0000000000E+00   0.0000000000E+00   0.0000000000E+00  -0.3260548902E+00  -0.1669140952E+01  -0.1607658844E-01   0.2222358208E+00   0.2396254086E+00  -0.3488304074E+00
   0.5650639878E+00   0.7236815050E+00   0.1003214084E+01   0.2172623773E-02   0.1241033795E-01   0.3214084242E-02   0.0000000000E+00   0.0000000000E+00   0.0000000000E+00  -0.2645613935E+00  -0.1271191140E+01  -0.2692121504E+00   0.3074420061E+00   0.2060553612E+00  -0.1841316632E+00
   0.4671556037E+00   0.6007980258E+00   0.1003311461E+01   0.2220896667E-02   0.1229508183E-01   0.3311460869E-02   0.0000000000E+00   0.0000000000E+00   0.0000000000E+00   0.5998881773E+00  -0.5917194874E+00   0.4907689314E+00   0.3438455472E+00   0.3616079251E+00  -0.2521688828E+00
   0.3942255782E+00   0.8238773999E+00   0.1001516394E+01   0.1035492218E-02   0.9330993884E-02   0.1516393620E-02   0.0000000000E+00   0.0000000000E+00   0.0000000000E+00   0.2966807738E+00  -0.4352124812E+00   0.9420589153E-01   0.3656539298E+00   0.1480204418E+00  -0.2637925426E-01
   0.3240456619E+00   0.6861848723E+00   0.1001390764E+01   0.9787418802E-03   0.9333480337E-02   0.1390763947E-02   0.0000000000E+00   0.0000000000E+00   0.0000000000E+00   0.5311945710E+00  -0.2972043582E+00   0.2321604609E+00   0.3770393180E+00   0.2279644923E+00  -0.1324338815E+00
   0.1985955168E+00   0.8833427037E+00   0.1000783500E+01   0.2192637840E-03   0.6991823709E-02   0.7835002947E-03   0.0000000000E+00   0.0000000000E+00   0.0000000000E+00  -0.4056241188E+00  -0.8878717801E+00  -0.6111717289E+00   0.2567737057E+00   0.4714288352E-01  -0.1010258798E-01
   0.1652012664E+00   0.7389105690E+00   0.1000493464E+01   0.1319394179E-03   0.7301284026E-02   0.4934643767E-03   0.0000000000E+00   0.0000000000E+00   0.0000000000E+00   0.5916389921E+00   0.7959344281E-01   0.2816487379E+00   0.2397014789E+00   0.8804783655E-01  -0.2965248164E-01
   0.4363099408E+00   0.9737143245E+00   0.1001687103E+01   0.1149303751E-02   0.8845898535E-02   0.1687103214E-02   0.0000000000E+00   0.0000000000E+00   0.0000000000E+00  -0.2773286654E+00  -0.9913675725E+00  -0.4096085172E+00   0.3886623440E+00   0.1143539859E+00   0.1023163533E-01
   0.2171733537E+00   0.1037492314E+01   0.1000905740E+01   0.3708457053E-03   0.6495753957E-02   0.9057399123E-03   0.0000000000E+00   0.0000000000E+00   0.0000000000E+00  -0.2928853320E+00  -0.7880590300E+00  -0.4649467346E+00   0.2465726292E+00   0.4113040000E-01  -0.3270009933E-01
   0.2275372964E+00   0.1216188455E+01   0.1000894918E+01   0.5332753617E-03   0.5818275271E-02   0.8949183702E-03   0.0000000000E+00   0.0000000000E+00   0.0000000000E+00  -0.3678106044E-01  -0.5286301451E+00  -0.2004148943E+00   0.1889200364E+00   0.4450342055E-01  -0.4988045999E-02
   0.2305946635E+00   0.1407644897E+01   0.1001048281E+01   0.5313295496E-03   0.5037217365E-02   0.1048280921E-02   0.0000000000E+00   0.0000000000E+00   0.0000000000E+00  -0.2708742595E+00  -0.7409506354E+00  -0.3722534153E+00   0.1336400437E+00   0.5785579007E-01   0.2234531631E-01
   0.2311195125E+00   0.1603817948E+01   0.1001165085E+01   0.5354275450E-03   0.4201658218E-02   0.1165084607E-02   0.0000000000E+00   0.0000000000E+00   0.0000000000E+00  -0.2811899564E+00  -0.7346595432E+00  -0.3352231643E+00   0.9941558694E-01   0.5230597073E-01   0.1410641804E-01
   0.2308669161E+00   0.1801772134E+01   0.1001227082E+01   0.5149610610E-03   0.3358854357E-02   0.1227082479E-02   0.0000000000E+00   0.0000000000E+00   0.0000000000E+00  -0.3301047144E+00  -0.7551931381E+00  -0.3429319113E+00   0.6419364001E-01   0.4314941557E-01   0.9753240992E-02
   0.2304121109E+00   0.2000430449E+01   0.1001231477E+01   0.4808908819E-03   0.2539619287E-02   0.1231476695E-02   0.0000000000E+00   0.0000000000E+00   0.0000000000E+00  -0.3544730518E+00  -0.7433761077E+00  -0.3356031480E+00   0.3844588761E-01   0.3344955578E-01   0.1945364770E-02
   0.2299767565E+00   0.2199312784E+01   0.1001174255E+01   0.4258735416E-03   0.1776073752E-02   0.1174254688E-02   0.0000000000E+00   0.0000000000E+00   0.0000000000E+00  -0.4651515572E+00  -0.8064713513E+00  -0.4225356210E+00   0.1733028181E-01   0.2431129683E-01  -0.7922923093E-02
   0.2294148975E+00   0.2398840324E+01   0.1001041961E+01   0.3526384518E-03   0.1098054417E-02   0.1041960627E-02   0.0000000000E+00   0.0000000000E+00   0.0000000000E+00  -0.3329481519E+00  -0.6145680779E+00  -0.2774341643E+00   0.1529301413E-02   0.1698305874E-01  -0.2153688338E-01
   0.2290597409E+00   0.2598851831E+01   0.1000819192E+01   0.2616938846E-03   0.5430311429E-03   0.8191919450E-03   0.0000000000E+00   0.0000000000E+00   0.0000000000E+00  -0.1192362378E+01  -0.1404829973E+01  -0.1136632054E+01  -0.9164826420E-02   0.1122770939E-01  -0.3866360063E-01
   0.2294402594E+00   0.2799261292E+01   0.1000481082E+01   0.1545423839E-03   0.1551720759E-03   0.4810815707E-03   0.0000000000E+00   0.0000000000E+00   0.0000000000E+00   0.1508469991E+01   0.1395419359E+01   0.1547307641E+01  -0.2008527024E-01   0.7443577300E-02  -0.6571325325E-01
   0.2284518480E+00   0.3000000000E+01   0.1000000000E+01   0.0000000000E+00   0.0000000000E+00   0.0000000000E+00   0.0000000000E+00   0.0000000000E+00   0.0000000000E+00  -0.8524820954E+01  -0.8558896643E+01  -0.8524775078E+01  -0.2749616766E-01  -0.8301320279E-04  -0.8511108683E-01
   0.4481922950E+00   0.1169804539E+01   0.1001605958E+01   0.1338717001E-02   0.7669178858E-02   0.1605958106E-02   0.0000000000E+00   0.0000000000E+00   0.0000000000E+00  -0.1360941311E+00  -0.8503952229E+00  -0.2676257810E+00   0.2750230233E+00   0.1163816707E+00   0.1308580515E-01
   0.4498786834E+00   0.1372502655E+01   0.1001705692E+01   0.1220395357E-02   0.6432745442E-02   0.1705691844E-02   0.0000000000E+00   0.0000000000E+00   0.0000000000E+00  -0.3401414822E+00  -0.9631960291E+00  -0.3844014784E+00   0.1808888877E+00   0.9152840560E-01   0.2958431507E-01
   0.4494496107E+00   0.1575358949E+01   0.1001700025E+01   0.1134228667E-02   0.5220499172E-02   0.1700024613E-02   0.0000000000E+00   0.0000000000E+00   0.0000000000E+00  -0.3023763516E+00  -0.8872080196E+00  -0.3124259762E+00   0.1355785448E+00   0.6831409261E-01   0.5612096456E-02
   0.4489043828E+00   0.1778011519E+01   0.1001643352E+01   0.1030670796E-02   0.4081568628E-02   0.1643352465E-02   0.0000000000E+00   0.0000000000E+00   0.0000000000E+00  -0.3283081627E+00  -0.8541964188E+00  -0.3058551176E+00   0.8688020925E-01   0.5274162432E-01   0.9252021326E-03
   0.4485040329E+00   0.1980752798E+01   0.1001546239E+01   0.9157379062E-03   0.3031698454E-02   0.1546239187E-02   0.0000000000E+00   0.0000000000E+00   0.0000000000E+00  -0.3368345286E+00  -0.8044458023E+00  -0.2922548208E+00   0.5151045217E-01   0.4019699494E-01  -0.7382879942E-02
   0.4481684060E+00   0.2183711423E+01   0.1001404360E+01   0.7782070191E-03   0.2089393293E-02   0.1404360451E-02   0.0000000000E+00   0.0000000000E+00   0.0000000000E+00  -0.4464888464E+00  -0.8481368073E+00  -0.3862801285E+00   0.2167353176E-01   0.2995151759E-01  -0.1591606692E-01
   0.4478167187E+00   0.2387080850E+01   0.1001205860E+01   0.6208906883E-03   0.1276669872E-02   0.1205860255E-02   0.0000000000E+00   0.0000000000E+00   0.0000000000E+00  -0.2949328558E+00  -0.6211511478E+00  -0.2275944973E+00  -0.1358744110E-02   0.2137892965E-01  -0.2815584331E-01
   0.4476307226E+00   0.2590935238E+01   0.1000928527E+01   0.4440146147E-03   0.6246683831E-03   0.9285270635E-03   0.0000000000E+00   0.0000000000E+00   0.0000000000E+00  -0.1237198253E+01  -0.1480271408E+01  -0.1173841386E+01  -0.1749211687E-01   0.1434589026E-01  -0.4454713842E-01
   0.4479067963E+00   0.2795253211E+01   0.1000540523E+01   0.2502242548E-03   0.1761212264E-03   0.5405231993E-03   0.0000000000E+00   0.0000000000E+00   0.0000000000E+00   0.1761615320E+01   0.1634465485E+01   0.1805433831E+01  -0.3294215452E-01   0.9750502228E-02  -0.7269227557E-01
   0.4470604360E+00   0.3000000000E+01   0.1000000000E+01   0.0000000000E+00   0.0000000000E+00   0.0000000000E+00   0.0000000000E+00   0.0000000000E+00   0.0000000000E+00  -0.9391376728E+01  -0.9428785774E+01  -0.9391261085E+01  -0.4290852731E-01  -0.9678942979E-04  -0.9354550114E-01
   0.6814073963E+00   0.1116687541E+01   0.1002694279E+01   0.2367500291E-02   0.1002014105E-01   0.2694278808E-02   0.0000000000E+00   0.0000000000E+00   0.0000000000E+00  -0.6876426025E+00  -0.1590696216E+01  -0.6876063231E+00   0.2866274770E+00   0.1101973550E+00   0.3921654357E-01
   0.6735775775E+00   0.1337366956E+01   0.1002437137E+01   0.2062768511E-02   0.8083356386E-02   0.2437137260E-02   0.0000000000E+00   0.0000000000E+00   0.0000000000E+00  -0.3979901575E+00  -0.1187879142E+01  -0.3756368929E+00   0.1769895182E+00   0.8717029556E-01   0.5148540341E-02
   0.6698051973E+00   0.1547487791E+01   0.1002242655E+01   0.1851289343E-02   0.6426981495E-02   0.2242655379E-02   0.0000000000E+00   0.0000000000E+00   0.0000000000E+00  -0.3801703091E+00  -0.1100290762E+01  -0.3449359050E+00   0.1423515678E+00   0.7585982304E-01   0.5159193256E-02
   0.6685294334E+00   0.1754576141E+01   0.1002060618E+01   0.1642984449E-02   0.4961780600E-02   0.2060618081E-02   0.0000000000E+00   0.0000000000E+00   0.0000000000E+00  -0.3532001029E+00  -0.9904871659E+00  -0.2990755328E+00   0.8924929031E-01   0.6086554621E-01  -0.3702455550E-02
   0.6681812316E+00   0.1961205876E+01   0.1001875339E+01   0.1429727577E-02   0.3652365806E-02   0.1875338859E-02   0.0000000000E+00   0.0000000000E+00   0.0000000000E+00  -0.3575682287E+00  -0.9160575049E+00  -0.2887951903E+00   0.5077202868E-01   0.4825226045E-01  -0.1004510927E-01
   0.6679653702E+00   0.2168074092E+01   0.1001661678E+01   0.1195448192E-02   0.2498592054E-02   0.1661677609E-02   0.0000000000E+00   0.0000000000E+00   0.0000000000E+00  -0.4739778466E+00  -0.9493131012E+00  -0.3956605339E+00   0.1649900598E-01   0.3696630108E-01  -0.1963901853E-01
   0.6677373762E+00   0.2375278701E+01   0.1001400712E+01   0.9396782458E-03   0.1517520832E-02   0.1400711760E-02   0.0000000000E+00   0.0000000000E+00   0.0000000000E+00  -0.2936156643E+00  -0.6771326284E+00  -0.2130235588E+00  -0.1072431527E-01   0.2710026922E-01  -0.3266053624E-01
   0.6675303272E+00   0.2582905073E+01   0.1001064886E+01   0.6617602197E-03   0.7388830100E-03   0.1064885701E-02   0.0000000000E+00   0.0000000000E+00   0.0000000000E+00  -0.1366214583E+01  -0.1650510716E+01  -0.1293719922E+01  -0.3028146254E-01   0.1882107924E-01  -0.4986038500E-01
   0.6674566260E+00   0.2791099315E+01   0.1000618397E+01   0.3632300293E-03   0.2074246134E-03   0.6183974529E-03   0.0000000000E+00   0.0000000000E+00   0.0000000000E+00   0.2096832175E+01   0.1949060322E+01   0.2146753756E+01  -0.4879293409E-01   0.1346489984E-01  -0.8102749722E-01
   0.6674458380E+00   0.3000000000E+01   0.1000000000E+01   0.0000000000E+00   0.0000000000E+00   0.0000000000E+00   0.0000000000E+00   0.0000000000E+00   0.0000000000E+00  -0.1078206524E+02  -0.1082508809E+02  -0.1078196951E+02  -0.6039772392E-01  -0.9525557422E-04  -0.1049181776E+00
   0.8892699097E+00   0.2788282219E+01   0.1000707485E+01   0.4962897086E-03   0.2399091940E-03   0.7074854345E-03   0.0000000000E+00   0.0000000000E+00   0.0000000000E+00   0.2571690995E+01   0.2401206281E+01   0.2627530982E+01  -0.6815369263E-01   0.1564836331E-01  -0.9238679741E-01
   0.8889284130E+00   0.3000000000E+01   0.1000000000E+01   0.0000000000E+00   0.0000000000E+00   0.0000000000E+00   0.0000000000E+00   0.0000000000E+00   0.0000000000E+00  -0.1219522649E+02  -0.1224402185E+02  -0.1219518492E+02  -0.8087155673E-01  -0.5525521413E-04  -0.1182401977E+00
   0.1111409222E+01   0.2786685258E+01   0.1000775887E+01   0.6505615115E-03   0.2706384541E-03   0.7758865485E-03   0.0000000000E+00   0.0000000000E+00   0.0000000000E+00   0.2995198196E+01   0.2801950260E+01   0.3053767298E+01  -0.9138711322E-01   0.1306208599E-01  -0.1005663760E+00
   0.1110863090E+01   0.3000000000E+01   0.1000000000E+01   0.0000000000E+00   0.0000000000E+00   0.0000000000E+00   0.0000000000E+00   0.0000000000E+00   0.0000000000E+00  -0.1363081732E+02  -0.1368538565E+02  -0.1363078528E+02  -0.1048901951E+00  -0.3320123348E-04  -0.1286781920E+00
   0.1333766770E+01   0.2785959184E+01   0.1000807703E+01   0.8290503178E-03   0.2941443324E-03   0.8077032539E-03   0.0000000000E+00   0.0000000000E+00   0.0000000000E+00   0.3370919106E+01   0.3157517331E+01   0.3426666054E+01  -0.1167615363E+00   0.1518093588E-01  -0.1042520443E+00
   0.1333017710E+01   0.3000000000E+01   0.1000000000E+01   0.0000000000E+00   0.0000000000E+00   0.0000000000E+00   0.0000000000E+00   0.0000000000E+00   0.0000000000E+00  -0.1475381975E+02  -0.1481292478E+02  -0.1475380551E+02  -0.1332986899E+00  -0.1238795303E-04  -0.1333935301E+00
   0.1556269648E+01   0.2785727895E+01   0.1000828736E+01   0.1034137885E-02   0.3170153674E-03   0.8287357348E-03   0.0000000000E+00   0.0000000000E+00   0.0000000000E+00   0.3760257600E+01   0.3526921849E+01   0.3811915834E+01  -0.1472417638E+00   0.1371134577E-01  -0.1062769123E+00
   0.1555290700E+01   0.3000000000E+01   0.1000000000E+01   0.0000000000E+00   0.0000000000E+00   0.0000000000E+00   0.0000000000E+00   0.0000000000E+00   0.0000000000E+00  -0.1594676204E+02  -0.1601066799E+02  -0.1594675758E+02  -0.1667075165E+00  -0.2849836040E-05  -0.1367727562E+00
   0.1778869546E+01   0.2785699820E+01   0.1000853519E+01   0.1267345887E-02   0.3368596539E-03   0.8535192270E-03   0.0000000000E+00   0.0000000000E+00   0.0000000000E+00   0.4162475922E+01   0.3908181001E+01   0.4209949259E+01  -0.1709435512E+00   0.4761661567E-01  -0.1127853903E+00
   0.1777629730E+01   0.3000000000E+01   0.1000000000E+01   0.0000000000E+00   0.0000000000E+00   0.0000000000E+00   0.0000000000E+00   0.0000000000E+00   0.0000000000E+00  -0.1674172224E+02  -0.1680882544E+02  -0.1674172329E+02  -0.2055122520E+00   0.4719790142E-06  -0.1389532996E+00
   0.2001525668E+01   0.2785804978E+01   0.1001176132E+01   0.1525668464E-02   0.4427381388E-03   0.1176132289E-02   0.0000000000E+00   0.0000000000E+00   0.0000000000E+00   0.5786913671E+01   0.5481105627E+01   0.5878511572E+01  -0.1934472457E+00   0.9226885941E-01  -0.1388866182E+00
   0.2000000000E+01   0.3000000000E+01   0.1000000000E+01   0.0000000000E+00   0.0000000000E+00   0.0000000000E+00   0.0000000000E+00   0.0000000000E+00   0.0000000000E+00  -0.2320779732E+02  -0.2330081915E+02  -0.2320779961E+02  -0.2492317061E+00   0.2215968842E-05  -0.2009479885E+00
   0.8895161211E+00   0.2577339930E+01   0.1001225403E+01   0.9183940505E-03   0.8604996245E-03   0.1225403083E-02   0.0000000000E+00   0.0000000000E+00   0.0000000000E+00  -0.1359965804E+01  -0.1689335666E+01  -0.1276595017E+01  -0.4775701667E-01   0.1957234224E-01  -0.5975849753E-01
   0.1111813310E+01   0.2574108808E+01   0.1001342428E+01   0.1211769876E-02   0.9712884930E-03   0.1342427935E-02   0.0000000000E+00   0.0000000000E+00   0.0000000000E+00  -0.1427287369E+01  -0.1797807679E+01  -0.1338085640E+01  -0.7071727135E-01   0.1182654790E-01  -0.6444649072E-01
   0.1334346557E+01   0.2572581585E+01   0.1001397173E+01   0.1541396788E-02   0.1054585216E-02   0.1397172826E-02   0.0000000000E+00   0.0000000000E+00   0.0000000000E+00  -0.1464909905E+01  -0.1868714388E+01  -0.1377244929E+01  -0.9319318307E-01   0.8259997836E-02  -0.6529610931E-01
   0.1557046982E+01   0.2572054151E+01   0.1001430061E+01   0.1906011503E-02   0.1130821281E-02   0.1430061261E-02   0.0000000000E+00   0.0000000000E+00   0.0000000000E+00  -0.1521777976E+01  -0.1955529775E+01  -0.1436706534E+01  -0.1193870661E+00   0.9426124636E-02  -0.6451454790E-01
   0.1779857771E+01   0.2571977376E+01   0.1001511751E+01   0.2303380544E-02   0.1212835826E-02   0.1511751143E-02   0.0000000000E+00   0.0000000000E+00   0.0000000000E+00  -0.1469099661E+01  -0.1937221501E+01  -0.1378623238E+01  -0.1220304210E+00   0.4062472852E-01  -0.7036927983E-01
   0.2002726459E+01   0.2572227999E+01   0.1001844883E+01   0.2726458705E-02   0.1506609084E-02   0.1844882759E-02   0.0000000000E+00   0.0000000000E+00   0.0000000000E+00  -0.2037511634E+01  -0.2570530193E+01  -0.1898215232E+01  -0.1181088369E+00   0.7408024687E-01  -0.5727992133E-01
   0.8897608858E+00   0.2366959615E+01   0.1001632257E+01   0.1312289819E-02   0.1777695401E-02   0.1632257444E-02   0.0000000000E+00   0.0000000000E+00   0.0000000000E+00  -0.1392516402E+00  -0.5851049116E+00  -0.4145967489E-01  -0.2757524588E-01   0.2540959844E-01  -0.4371967441E-01
   0.1112159279E+01   0.2362064063E+01   0.1001780310E+01   0.1732498734E-02   0.2002892586E-02   0.1780310301E-02   0.0000000000E+00   0.0000000000E+00   0.0000000000E+00  -0.6611705187E-01  -0.5634427976E+00   0.3979070433E-01  -0.5352698977E-01   0.1103947374E-01  -0.4605301397E-01
   0.1334840111E+01   0.2359687935E+01   0.1001839562E+01   0.2195530954E-02   0.2166634603E-02   0.1839562173E-02   0.0000000000E+00   0.0000000000E+00   0.0000000000E+00  -0.9844506792E-02  -0.5454987493E+00   0.9508836570E-01  -0.7721224383E-01   0.2881368059E-02  -0.4403168398E-01
   0.1557718645E+01   0.2358819470E+01   0.1001870396E+01   0.2696045266E-02   0.2309779723E-02   0.1870396360E-02   0.0000000000E+00   0.0000000000E+00   0.0000000000E+00   0.3490499531E-01  -0.5328283014E+00   0.1384505323E+00  -0.1010775836E+00   0.6419897317E-02  -0.4121476389E-01
   0.1780721809E+01   0.2358681128E+01   0.1001972933E+01   0.3228328950E-02   0.2481148058E-02   0.1972932705E-02   0.0000000000E+00   0.0000000000E+00   0.0000000000E+00   0.1183089452E+00  -0.4878934761E+00   0.2337125313E+00  -0.9151362240E-01   0.2583164830E-01  -0.4003063957E-01
   0.2003782944E+01   0.2359033332E+01   0.1002209924E+01   0.3782943559E-02   0.2946362068E-02   0.2209924301E-02   0.0000000000E+00   0.0000000000E+00   0.0000000000E+00   0.1749231535E+00  -0.4815199040E+00   0.3291185491E+00  -0.7612850528E-01   0.3952131892E-01  -0.2268678801E-01
   0.8899923175E+00   0.2156999874E+01   0.1001969633E+01   0.1679977461E-02   0.2943804131E-02   0.1969632525E-02   0.0000000000E+00   0.0000000000E+00   0.0000000000E+00  -0.3311008051E+00  -0.8858474649E+00  -0.2279327043E+00  -0.1460745336E-02   0.3172679693E-01  -0.3257107705E-01
   0.1112464991E+01   0.2150417952E+01   0.1002131433E+01   0.2220241108E-02   0.3305581785E-02   0.2131432666E-02   0.0000000000E+00   0.0000000000E+00   0.0000000000E+00  -0.2813672200E+00  -0.8940301192E+00  -0.1692513868E+00  -0.3419214875E-01   0.9000472226E-02  -0.3252092985E-01
   0.1335276067E+01   0.2147159009E+01   0.1002177842E+01   0.2806727275E-02   0.3557828860E-02   0.2177842146E-02   0.0000000000E+00   0.0000000000E+00   0.0000000000E+00  -0.2612755204E+00  -0.9133845181E+00  -0.1510265007E+00  -0.6110697909E-01  -0.9099670417E-03  -0.2864599669E-01
   0.1558320885E+01   0.2145917246E+01   0.1002193901E+01   0.3430374552E-02   0.3771135659E-02   0.2193901061E-02   0.0000000000E+00   0.0000000000E+00   0.0000000000E+00  -0.2513460089E+00  -0.9348096062E+00  -0.1423086246E+00  -0.8189964249E-01   0.3646024978E-02  -0.2493333917E-01
   0.1781507547E+01   0.2145700925E+01   0.1002279829E+01   0.4082736846E-02   0.4039045242E-02   0.2279828935E-02   0.0000000000E+00   0.0000000000E+00   0.0000000000E+00  -0.2259150832E+00  -0.9460256120E+00  -0.1034361783E+00  -0.6451000149E-01   0.1282037415E-01  -0.2023010525E-01
   0.2004753105E+01   0.2146094903E+01   0.1002408686E+01   0.4753105143E-02   0.4633292931E-02   0.2408686207E-02   0.0000000000E+00   0.0000000000E+00   0.0000000000E+00  -0.2948560906E+00  -0.1051366960E+01  -0.1454033564E+00  -0.4401594874E-01   0.1282662891E-01  -0.4412658503E-02
   0.8902402794E+00   0.1947391050E+01   0.1002268277E+01   0.2024141400E-02   0.4329579793E-02   0.2268276724E-02   0.0000000000E+00   0.0000000000E+00   0.0000000000E+00  -0.1806606437E+00  -0.8352109308E+00  -0.7775860468E-01   0.2817309572E-01   0.3731882348E-01  -0.2498595633E-01
   0.1112814887E+01   0.1939104933E+01   0.1002423349E+01   0.2680767443E-02   0.4838483470E-02   0.2423349319E-02   0.0000000000E+00   0.0000000000E+00   0.0000000000E+00  -0.1052457351E+00  -0.8194740807E+00   0.5175267779E-02  -0.1668349896E-01   0.4384368570E-02  -0.2280465894E-01
   0.1335766781E+01   0.1934934460E+01   0.1002441512E+01   0.3384700772E-02   0.5176860284E-02   0.2441512286E-02   0.0000000000E+00   0.0000000000E+00   0.0000000000E+00  -0.8628496756E-01  -0.8372618694E+00   0.1985275651E-01  -0.4792884335E-01  -0.4224840873E-02  -0.1805395648E-01
   0.1558970210E+01   0.1933291437E+01   0.1002430501E+01   0.4123450392E-02   0.5455616861E-02   0.2430500592E-02   0.0000000000E+00   0.0000000000E+00   0.0000000000E+00  -0.7627995792E-01  -0.8549002779E+00   0.2754060570E-01  -0.6617768485E-01  -0.4659650085E-04  -0.1419176549E-01
   0.1782319052E+01   0.1932969323E+01   0.1002472622E+01   0.4886611566E-02   0.5810733454E-02   0.2472621626E-02   0.0000000000E+00   0.0000000000E+00   0.0000000000E+00  -0.6671941895E-01  -0.8754934929E+00   0.4817490365E-01  -0.4485312993E-01   0.3248761771E-02  -0.8063932977E-02
   0.2005663170E+01   0.1933338421E+01   0.1002513338E+01   0.5663169724E-02   0.6494300798E-02   0.2513338202E-02   0.0000000000E+00   0.0000000000E+00   0.0000000000E+00  -0.7677795370E-01  -0.9100688003E+00   0.5589519625E-01  -0.2372690765E-01  -0.2254857295E-02   0.2965630856E-02
   0.8909298310E+00   0.1738027343E+01   0.1002545669E+01   0.2350521983E-02   0.5920423228E-02   0.2545668994E-02   0.0000000000E+00   0.0000000000E+00   0.0000000000E+00  -0.1489693433E+00  -0.9005497543E+00  -0.5110676059E-01   0.5856015786E-01   0.4104616498E-01  -0.2098498491E-01
   0.1113826616E+01   0.1728065763E+01   0.1002669564E+01   0.3125056138E-02   0.6573712752E-02   0.2669563510E-02   0.0000000000E+00   0.0000000000E+00   0.0000000000E+00  -0.5952411872E-01  -0.8678517581E+00   0.4148691099E-01  -0.3399122420E-02  -0.2976394668E-02  -0.1461730851E-01
   0.1336976234E+01   0.1723003974E+01   0.1002646966E+01   0.3945293616E-02   0.6986253780E-02   0.2646965895E-02   0.0000000000E+00   0.0000000000E+00   0.0000000000E+00  -0.5549096317E-01  -0.8948098899E+00   0.3764313628E-01  -0.3871397879E-01  -0.7048049953E-02  -0.8884289834E-02
   0.1560258345E+01   0.1720950050E+01   0.1002599163E+01   0.4795504741E-02   0.7318300484E-02   0.2599163057E-02   0.0000000000E+00   0.0000000000E+00   0.0000000000E+00  -0.5755368467E-01  -0.9181448957E+00   0.3124064395E-01  -0.5583770531E-01  -0.3959176370E-02  -0.5577608242E-02
   0.1783521425E+01   0.1720488112E+01   0.1002583366E+01   0.5663524941E-02   0.7739821765E-02   0.2583365587E-02   0.0000000000E+00   0.0000000000E+00   0.0000000000E+00  -0.5680627551E-01  -0.9379452454E+00   0.3867490508E-01  -0.3278544430E-01  -0.2451730005E-02  -0.2041010291E-03
   0.2006539017E+01   0.1720762129E+01   0.1002559715E+01   0.6539017053E-02   0.8482449130E-02   0.2559715009E-02   0.0000000000E+00   0.0000000000E+00   0.0000000000E+00  -0.7567361407E-01  -0.9726895054E+00   0.3160145122E-01  -0.1233653263E-01  -0.7457553261E-02   0.6963703679E-02
   0.8936406561E+00   0.1528278698E+01   0.1002815099E+01   0.2676208116E-02   0.7719508435E-02   0.2815099069E-02   0.0000000000E+00   0.0000000000E+00   0.0000000000E+00  -0.1333023460E+00  -0.9802414987E+00  -0.4340984256E-01   0.9294730017E-01   0.4056118627E-01  -0.6900500171E-02
   0.1117398445E+01   0.1516972868E+01   0.1002873050E+01   0.3573834805E-02   0.8496367938E-02   0.2873049990E-02   0.0000000000E+00   0.0000000000E+00   0.0000000000E+00  -0.1181815895E-01  -0.9093652394E+00   0.7093960924E-01   0.3882196796E-02  -0.1303844819E-01  -0.1214566193E-02
   0.1340683290E+01   0.1511273905E+01   0.1002799749E+01   0.4514049723E-02   0.8960295411E-02   0.2799748778E-02   0.0000000000E+00   0.0000000000E+00   0.0000000000E+00  -0.1780252378E-01  -0.9383423158E+00   0.5222761610E-01  -0.3528081863E-01  -0.8734693001E-02   0.1645350428E-02
   0.1563499252E+01   0.1508904887E+01   0.1002710822E+01   0.5475682052E-02   0.9325817323E-02   0.2710821918E-02   0.0000000000E+00   0.0000000000E+00   0.0000000000E+00  -0.2161179868E-01  -0.9547849617E+00   0.4185116322E-01  -0.5342015659E-01  -0.6592508575E-02   0.2551468488E-02
   0.1785793205E+01   0.1508311971E+01   0.1002633991E+01   0.6444594855E-02   0.9785400853E-02   0.2633991122E-02   0.0000000000E+00   0.0000000000E+00   0.0000000000E+00  -0.1773254536E-01  -0.9597964537E+00   0.4778761571E-01  -0.2962706009E-01  -0.4393541765E-02   0.5644304929E-02
   0.2007412870E+01   0.1508460585E+01   0.1002560030E+01   0.7412869879E-02   0.1056248473E-01   0.2560029864E-02   0.0000000000E+00   0.0000000000E+00   0.0000000000E+00  -0.3670782427E-01  -0.9873060858E+00   0.3648851210E-01  -0.9545216449E-02  -0.5941653544E-02   0.1110224398E-01
   0.9014292825E+00   0.1316223395E+01   0.1003050498E+01   0.3023372548E-02   0.9755625325E-02   0.3050497710E-02   0.0000000000E+00   0.0000000000E+00   0.0000000000E+00  -0.6940021577E-01  -0.1010249583E+01   0.2230879385E-02   0.1099716670E+00   0.3206822488E-01  -0.8120527553E-02
   0.1126746727E+01   0.1304857804E+01   0.1003019771E+01   0.4062607205E-02   0.1060612392E-01   0.3019771449E-02   0.0000000000E+00   0.0000000000E+00   0.0000000000E+00   0.3150072429E-01  -0.9546415828E+00   0.8144352178E-01  -0.1413374553E-02  -0.2214308991E-01   0.5015871270E-02
   0.1349456344E+01   0.1299361245E+01   0.1002898533E+01   0.5130563714E-02   0.1108421545E-01   0.2898533473E-02   0.0000000000E+00   0.0000000000E+00   0.0000000000E+00   0.8106752966E-02  -0.9905144245E+00   0.4246071295E-01  -0.3870975454E-01  -0.7727796922E-02   0.1189538948E-01
   0.1570348924E+01   0.1297061096E+01   0.1002769054E+01   0.6204073760E-02   0.1145494587E-01   0.2769053575E-02   0.0000000000E+00   0.0000000000E+00   0.0000000000E+00  -0.7751514071E-02  -0.1008641628E+01   0.1853462808E-01  -0.5926975393E-01  -0.6258383746E-02   0.1274983851E-01
   0.1789911282E+01   0.1296458945E+01   0.1002634178E+01   0.7270702182E-02   0.1191936453E-01   0.2634178005E-02   0.0000000000E+00   0.0000000000E+00   0.0000000000E+00   0.1321480280E-02  -0.9957709486E+00   0.2563820324E-01  -0.3610613673E-01  -0.2722340321E-02   0.1433444843E-01
   0.2008326978E+01   0.1296541373E+01   0.1002508394E+01   0.8326977866E-02   0.1270453308E-01   0.2508394462E-02   0.0000000000E+00   0.0000000000E+00   0.0000000000E+00  -0.2232282008E-01  -0.1019627222E+01   0.5180770231E-02  -0.1709703993E-01  -0.5926343254E-03   0.2118925743E-01
   0.9186014474E+00   0.1098128517E+01   0.1003283237E+01   0.3449076359E-02   0.1208360660E-01   0.3283237289E-02   0.0000000000E+00   0.0000000000E+00   0.0000000000E+00  -0.2807492313E+00  -0.1301953658E+01  -0.2212606938E+00   0.1662268711E+00   0.1133578328E-01   0.6141773526E-01
   0.1145469798E+01   0.1090221559E+01   0.1003109273E+01   0.4627837582E-02   0.1291266891E-01   0.3109272838E-02   0.0000000000E+00   0.0000000000E+00   0.0000000000E+00  -0.5950514122E-01  -0.1138762234E+01  -0.5725424176E-01  -0.1999260220E-03  -0.3138195699E-01   0.5059302413E-01
   0.1365579443E+01   0.1086695496E+01   0.1002923602E+01   0.5826782853E-02   0.1334959584E-01   0.2923601666E-02   0.0000000000E+00   0.0000000000E+00   0.0000000000E+00  -0.5597224399E-01  -0.1133717807E+01  -0.7548113875E-01  -0.4344366943E-01  -0.5373303528E-02   0.4123831089E-01
   0.1582041643E+01   0.1085210530E+01   0.1002754675E+01   0.7016803191E-02   0.1368925013E-01   0.2754674738E-02   0.0000000000E+00   0.0000000000E+00   0.0000000000E+00  -0.2012633984E-01  -0.1090635999E+01  -0.5056904500E-01  -0.7345426005E-01  -0.1807674547E-02   0.3120842119E-01
   0.1796397116E+01   0.1084848769E+01   0.1002568719E+01   0.8185885688E-02   0.1412284901E-01   0.2568718618E-02   0.0000000000E+00   0.0000000000E+00   0.0000000000E+00   0.2436660842E-01  -0.1028883937E+01  -0.1103724426E-01  -0.5322525707E-01   0.1738095792E-02   0.2692136619E-01
   0.2009334881E+01   0.1084986441E+01   0.1002375668E+01   0.9334881172E-02   0.1488172147E-01   0.2375667727E-02   0.0000000000E+00   0.0000000000E+00   0.0000000000E+00   0.2058696580E-01  -0.1021409280E+01  -0.1861607674E-01  -0.3579955968E-01   0.5572863988E-02   0.3617103772E-01
     1     2     3     4     5     6     7     8
     2     9    10     3     6    11    12     7
     9    13    14    10    11    15    16    12
    17    18     2     1    19    20     6     5
    18    21     9     2    20    22    11     6
    21    23    13     9    22    24    15    11
    25    26    18    17    27    28    20    19
    26    29    21    18    28    30    22    20
    29    31    23    21    30    32    24    22
    33    34    26    25    35    36    28    27
    34    37    29    26    36    38    30    28
    37    39    31    29    38    40    32    30
    41    42    34    33    43    44    36    35
    42    45    37    34    44    46    38    36
    45    47    39    37    46    48    40    38
    45    49    50    47    46    51    52    48
    49    53    54    50    51    55    56    52
    42    57    49    45    44    58    51    46
    57    59    53    49    58    60    55    51
    41    61    57    42    43    62    58    44
    61    63    59    57    62    64    60    58
    61    65    66    63    62    67    68    64
    65    69    70    66    67    71    72    68
    69    73    74    70    71    75    76    72
    73    77    78    74    75    79    80    76
    41    81    65    61    43    82    67    62
    81    83    69    65    82    84    71    67
    83    85    73    69    84    86    75    71
    85    87    77    73    86    88    79    75
    85    89    90    87    86    91    92    88
    89    93    94    90    91    95    96    92
    93    97    98    94    95    99   100    96
    97   101   102    98    99   103   104   100
   101   105   106   102   103   107   108   104
   105   109   110   106   107   111   112   108
   109   113   114   110   111   115   116   112
   113   117   118   114   115   119   120   116
   117   121   122   118   119   123   124   120
   121   125   126   122   123   127   128   124
   125   129   130   126   127   131   132   128
    83   133    89    85    84   134    91    86
   133   135    93    89   134   136    95    91
   135   137    97    93   136   138    99    95
   137   139   101    97   138   140   103    99
   139   141   105   101   140   142   107   103
   141   143   109   105   142   144   111   107
   143   145   113   109   144   146   115   111
   145   147   117   113   146   148   119   115
   147   149   121   117   148   150   123   119
   149   151   125   121   150   152   127   123
   151   153   129   125   152   154   131   127
    81   155   133    83    82   156   134    84
   155   157   135   133   156   158   136   134
   157   159   137   135   158   160   138   136
   159   161   139   137   160   162   140   138
   161   163   141   139   162   164   142   140
   163   165   143   141   164   166   144   142
   165   167   145   143   166   168   146   144
   167   169   147   145   168   170   148   146
   169   171   149   147   170   172   150   148
   171   173   151   149   172   174   152   150
   173   175   153   151   174   176   154   152
    41   177   155    81    43   178   156    82
   177   179   157   155   178   180   158   156
   179   181   159   157   180   182   160   158
   181   183   161   159   182   184   162   160
   183   185   163   161   184   186   164   162
   185   187   165   163   186   188   166   164
   187   189   167   165   188   190   168   166
   189   191   169   167   190   192   170   168
   191   193   171   169   192   194   172   170
   193   195   173   171   194   196   174   172
   195   197   175   173   196   198   176   174
   195   199   200   197   196   201   202   198
   199   203   204   200   201   205   206   202
   203   207   208   204   205   209   210   206
   207   211   212   208   209   213   214   210
   211   215   216   212   213   217   218   214
   193   219   199   195   194   220   201   196
   219   221   203   199   220   222   205   201
   221   223   207   203   222   224   209   205
   223   225   211   207   224   226   213   209
   225   227   215   211   226   228   217   213
   191   229   219   193   192   230   220   194
   229   231   221   219   230   232   222   220
   231   233   223   221   232   234   224   222
   233   235   225   223   234   236   226   224
   235   237   227   225   236   238   228   226
   189   239   229   191   190   240   230   192
   239   241   231   229   240   242   232   230
   241   243   233   231   242   244   234   232
   243   245   235   233   244   246   236   234
   245   247   237   235   246   248   238   236
   187   249   239   189   188   250   240   190
   249   251   241   239   250   252   242   240
   251   253   243   241   252   254   244   242
   253   255   245   243   254   256   246   244
   255   257   247   245   256   258   248   246
   185   259   249   187   186   260   250   188
   259   261   251   249   260   262   252   250
   261   263   253   251   262   264   254   252
   263   265   255   253   264   266   256   254
   265   267   257   255   266   268   258   256
   183   269   259   185   184   270   260   186
   269   271   261   259   270   272   262   260
   271   273   263   261   272   274   264   262
   273   275   265   263   274   276   266   264
   275   277   267   265   276   278   268   266
   181   279   269   183   182   280   270   184
   279   281   271   269   280   282   272   270
   281   283   273   271   282   284   274   272
   283   285   275   273   284   286   276   274
   285   287   277   275   286   288   278   276
   179   289   279   181   180   290   280   182
   289   291   281   279   290   292   282   280
   291   293   283   281   292   294   284   282
   293   295   285   283   294   296   286   284
   295   297   287   285   296   298   288   286
   177   299   289   179   178   300   290   180
   299   301   291   289   300   302   292   290
   301   303   293   291   302   304   294   292
   303   305   295   293   304   306   296   294
   305   307   297   295   306   308   298   296
    41    33   299   177    43    35   300   178
    33    25   301   299    35    27   302   300
    25    17   303   301    27    19   304   302
    17     1   305   303    19     5   306   304
     1     4   307   305     5     8   308   306
   309   310   311   312   313   314   315   316
   310   317   318   311   314   319   320   315
   317   321   322   318   319   323   324   320
   321    50    54   322   323    52    56   324
   321   325    47    50   323   326    48    52
   325   327    39    47   326   328    40    48
   327   329    31    39   328   330    32    40
   329   331    23    31   330   332    24    32
   331   333    13    23   332   334    15    24
   333   335    14    13   334   336    16    15
   317   337   325   321   319   338   326   323
   337   339   327   325   338   340   328   326
   339   341   329   327   340   342   330   328
   341   343   331   329   342   344   332   330
   343   345   333   331   344   346   334   332
   345   347   335   333   346   348   336   334
   310   349   337   317   314   350   338   319
   349   351   339   337   350   352   340   338
   351   353   341   339   352   354   342   340
   353   355   343   341   354   356   344   342
   355   357   345   343   356   358   346   344
   357   359   347   345   358   360   348   346
   309   361   349   310   313   362   350   314
   361   363   351   349   362   364   352   350
   363   365   353   351   364   366   354   352
   365   367   355   353   366   368   356   354
   367   369   357   355   368   370   358   356
   369   371   359   357   370   372   360   358
   369   373   374   371   370   375   376   372
   373   377   378   374   375   379   380   376
   377   381   382   378   379   383   384   380
   381   385   386   382   383   387   388   384
   385   389   390   386   387   391   392   388
   389   393   394   390   391   395   396   392
   393   397   398   394   395   399   400   396
   397   401   402   398   399   403   404   400
   401   405   406   402   403   407   408   404
   405   409   410   406   407   411   412   408
   409   413   414   410   411   415   416   412
   367   417   373   369   368   418   375   370
   417   419   377   373   418   420   379   375
   419   421   381   377   420   422   383   379
   421   423   385   381   422   424   387   383
   423   425   389   385   424   426   391   387
   425   427   393   389   426   428   395   391
   427   429   397   393   428   430   399   395
   429   431   401   397   430   432   403   399
   431   433   405   401   432   434   407   403
   433   435   409   405   434   436   411   407
   435   437   413   409   436   438   415   411
   365   439   417   367   366   440   418   368
   439   441   419   417   440   442   420   418
   441   443   421   419   442   444   422   420
   443   445   423   421   444   446   424   422
   445   447   425   423   446   448   426   424
   447   449   427   425   448   450   428   426
   449   451   429   427   450   452   430   428
   451   453   431   429   452   454   432   430
   453   455   433   431   454   456   434   432
   455   457   435   433   456   458   436   434
   457   459   437   435   458   460   438   436
   363   461   439   365   364   462   440   366
   461   463   441   439   462   464   442   440
   463   465   443   441   464   466   444   442
   465   467   445   443   466   468   446   444
   467   469   447   445   468   470   448   446
   469   471   449   447   470   472   450   448
   471   473   451   449   472   474   452   450
   473   475   453   451   474   476   454   452
   475   477   455   453   476   478   456   454
   477   479   457   455   478   480   458   456
   479   481   459   457   480   482   460   458
   361   483   461   363   362   484   462   364
   483   485   463   461   484   486   464   462
   485   487   465   463   486   488   466   464
   487   489   467   465   488   490   468   466
   489   491   469   467   490   492   470   468
   491   493   471   469   492   494   472   470
   493   495   473   471   494   496   474   472
   495   497   475   473   496   498   476   474
   497   499   477   475   498   500   478   476
   499   501   479   477   500   502   480   478
   501   503   481   479   502   504   482   480
   309   505   483   361   313   506   484   362
   505   507   485   483   506   508   486   484
   507   509   487   485   508   510   488   486
   509   511   489   487   510   512   490   488
   511   513   491   489   512   514   492   490
   513   515   493   491   514   516   494   492
   515   517   495   493   516   518   496   494
   517   519   497   495   518   520   498   496
   519   521   499   497   520   522   500   498
   521   523   501   499   522   524   502   500
   523   525   503   501   524   526   504   502
   523   527   528   525   524   529   530   526
   527   531   532   528   529   533   534   530
   531   535   536   532   533   537   538   534
   535   539   540   536   537   541   542   538
   521   543   527   523   522   544   529   524
   543   545   531   527   544   546   533   529
   545   547   535   531   546   548   537   533
   547   549   539   535   548   550   541   537
   519   551   543   521   520   552   544   522
   551   553   545   543   552   554   546   544
   553   555   547   545   554   556   548   546
   555   557   549   547   556   558   550   548
   517   559   551   519   518   560   552   520
   559   561   553   551   560   562   554   552
   561   563   555   553   562   564   556   554
   563   565   557   555   564   566   558   556
   515   567   559   517   516   568   560   518
   567   569   561   559   568   570   562   560
   569   571   563   561   570   572   564   562
   571   573   565   563   572   574   566   564
   513   575   567   515   514   576   568   516
   575   577   569   567   576   578   570   568
   577   579   571   569   578   580   572   570
   579   581   573   571   580   582   574   572
   511   583   575   513   512   584   576   514
   583   585   577   575   584   586   578   576
   585   587   579   577   586   588   580   578
   587   589   581   579   588   590   582   580
   509   591   583   511   510   592   584   512
   591   593   585   583   592   594   586   584
   593   595   587   585   594   596   588   586
   595   597   589   587   596   598   590   588
   507   599   591   509   508   600   592   510
   599   601   593   591   600   602   594   592
   601   603   595   593   602   604   596   594
   603   605   597   595   604   606   598   596
   505   607   599   507   506   608   600   508
   607   609   601   599   608   610   602   600
   609   611   603   601   610   612   604   602
   611   613   605   603   612   614   606   604
   309   615   607   505   313   616   608   506
   615   617   609   607   616   618   610   608
   617   619   611   609   618   620   612   610
   619   621   613   611   620   622   614   612
   619   623   624   621   620   625   626   622
   617   627   623   619   618   628   625   620
   615   629   627   617   616   630   628   618
   309   312   629   615   313   316   630   616
   631   632   633   634   635   636   637   638
   632   639   640   633   636   641   642   637
   639   643   644   640   641   645   646   642
   639   647   648   643   641   649   650   645
   647   651   652   648   649   653   654   650
   651   655   656   652   653   657   658   654
   655   659   660   656   657   661   662   658
   659   663   664   660   661   665   666   662
   663   667   668   664   665   669   670   666
   667   671   672   668   669   673   674   670
   632   675   647   639   636   676   649   641
   675   677   651   647   676   678   653   649
   677   679   655   651   678   680   657   653
   679   681   659   655   680   682   661   657
   681   683   663   659   682   684   665   661
   683   685   667   663   684   686   669   665
   685   687   671   667   686   688   673   669
   631   689   675   632   635   690   676   636
   689   691   677   675   690   692   678   676
   691   693   679   677   692   694   680   678
   693   695   681   679   694   696   682   680
   695   697   683   681   696   698   684   682
   697   699   685   683   698   700   686   684
   699   701   687   685   700   702   688   686
   699   703   704   701   700   705   706   702
   703   707   708   704   705   709   710   706
   707   711   712   708   709   713   714   710
   711   715   716   712   713   717   718   714
   715   719   720   716   717   721   722   718
   719   723   724   720   721   725   726   722
   723   727   728   724   725   729   730   726
   727   731   732   728   729   733   734   730
   731   735   736   732   733   737   738   734
   735   739   740   736   737   741   742   738
   739   743   744   740   741   745   746   742
   743   747   748   744   745   749   750   746
   697   751   703   699   698   752   705   700
   751   753   707   703   752   754   709   705
   753   755   711   707   754   756   713   709
   755   757   715   711   756   758   717   713
   757   759   719   715   758   760   721   717
   759   761   723   719   760   762   725   721
   761   763   727   723   762   764   729   725
   763   765   731   727   764   766   733   729
   765   767   735   731   766   768   737   733
   767   769   739   735   768   770   741   737
   769   771   743   739   770   772   745   741
   771   773   747   743   772   774   749   745
   695   775   751   697   696   776   752   698
   775   777   753   751   776   778   754   752
   777   779   755   753   778   780   756   754
   779   781   757   755   780   782   758   756
   781   783   759   757   782   784   760   758
   783   785   761   759   784   786   762   760
   785   787   763   761   786   788   764   762
   787   789   765   763   788   790   766   764
   789   791   767   765   790   792   768   766
   791   793   769   767   792   794   770   768
   793   795   771   769   794   796   772   770
   795   797   773   771   796   798   774   772
   693   799   775   695   694   800   776   696
   799   801   777   775   800   802   778   776
   801   803   779   777   802   804   780   778
   803   805   781   779   804   806   782   780
   805   807   783   781   806   808   784   782
   807   809   785   783   808   810   786   784
   809   811   787   785   810   812   788   786
   811   813   789   787   812   814   790   788
   813   815   791   789   814   816   792   790
   815   817   793   791   816   818   794   792
   817   819   795   793   818   820   796   794
   819   821   797   795   820   822   798   796
   691   823   799   693   692   824   800   694
   823   825   801   799   824   826   802   800
   825   827   803   801   826   828   804   802
   827   829   805   803   828   830   806   804
   829   831   807   805   830   832   808   806
   831   833   809   807   832   834   810   808
   833   835   811   809   834   836   812   810
   835   837   813   811   836   838   814   812
   837   839   815   813   838   840   816   814
   839   841   817   815   840   842   818   816
   841   843   819   817   842   844   820   818
   843   845   821   819   844   846   822   820
   689   847   823   691   690   848   824   692
   847   849   825   823   848   850   826   824
   849   851   827   825   850   852   828   826
   851   853   829   827   852   854   830   828
   853   855   831   829   854   856   832   830
   855   857   833   831   856   858   834   832
   857   859   835   833   858   860   836   834
   859   861   837   835   860   862   838   836
   861   863   839   837   862   864   840   838
   863   865   841   839   864   866   842   840
   865   867   843   841   866   868   844   842
   867   869   845   843   868   870   846   844
   631   871   847   689   635   872   848   690
   871   873   849   847   872   874   850   848
   873   875   851   849   874   876   852   850
   875   877   853   851   876   878   854   852
   877   879   855   853   878   880   856   854
   879   881   857   855   880   882   858   856
   881   883   859   857   882   884   860   858
   883   885   861   859   884   886   862   860
   885   887   863   861   886   888   864   862
   887   889   865   863   888   890   866   864
   889   891   867   865   890   892   868   866
   891   893   869   867   892   894   870   868
   891   895   896   893   892   897   898   894
   895   899   900   896   897   901   902   898
   899   126   130   900   901   128   132   902
   889   903   895   891   890   904   897   892
   903   905   899   895   904   906   901   897
   905   122   126   899   906   124   128   901
   887   907   903   889   888   908   904   890
   907   909   905   903   908   910   906   904
   909   118   122   905   910   120   124   906
   885   911   907   887   886   912   908   888
   911   913   909   907   912   914   910   908
   913   114   118   909   914   116   120   910
   883   915   911   885   884   916   912   886
   915   917   913   911   916   918   914   912
   917   110   114   913   918   112   116   914
   881   919   915   883   882   920   916   884
   919   921   917   915   920   922   918   916
   921   106   110   917   922   108   112   918
   879   923   919   881   880   924   920   882
   923   925   921   919   924   926   922   920
   925   102   106   921   926   104   108   922
   877   927   923   879   878   928   924   880
   927   929   925   923   928   930   926   924
   929    98   102   925   930   100   104   926
   875   931   927   877   876   932   928   878
   931   933   929   927   932   934   930   928
   933    94    98   929   934    96   100   930
   873   935   931   875   874   936   932   876
   935   937   933   931   936   938   934   932
   937    90    94   933   938    92    96   934
   871   939   935   873   872   940   936   874
   939   941   937   935   940   942   938   936
   941    87    90   937   942    88    92   938
   631   943   939   871   635   944   940   872
   943   945   941   939   944   946   942   940
   945    77    87   941   946    79    88   942
   945   947    78    77   946   948    80    79
   943   949   947   945   944   950   948   946
   631   634   949   943   635   638   950   944
   951   952   953   954   955   956   957   958
   952   959   960   953   956   961   962   957
   959   963   964   960   961   965   966   962
   963   668   672   964   965   670   674   966
   967   968   952   951   969   970   956   955
   968   971   959   952   970   972   961   956
   971   973   963   959   972   974   965   961
   973   664   668   963   974   666   670   965
   975   976   968   967   977   978   970   969
   976   979   971   968   978   980   972   970
   979   981   973   971   980   982   974   972
   981   660   664   973   982   662   666   974
   983   984   976   975   985   986   978   977
   984   987   979   976   986   988   980   978
   987   989   981   979   988   990   982   980
   989   656   660   981   990   658   662   982
   991   992   984   983   993   994   986   985
   992   995   987   984   994   996   988   986
   995   997   989   987   996   998   990   988
   997   652   656   989   998   654   658   990
   999  1000   992   991  1001  1002   994   993
  1000  1003   995   992  1002  1004   996   994
  1003  1005   997   995  1004  1006   998   996
  1005   648   652   997  1006   650   654   998
  1005  1007   643   648  1006  1008   645   650
  1007  1009   644   643  1008  1010   646   645
  1003  1011  1007  1005  1004  1012  1008  1006
  1011  1013  1009  1007  1012  1014  1010  1008
  1000  1015  1011  1003  1002  1016  1012  1004
  1015  1017  1013  1011  1016  1018  1014  1012
   999  1019  1015  1000  1001  1020  1016  1002
  1019  1021  1017  1015  1020  1022  1018  1016
  1019  1023  1024  1021  1020  1025  1026  1022
  1023  1027  1028  1024  1025  1029  1030  1026
  1027   621   624  1028  1029   622   626  1030
   999  1031  1023  1019  1001  1032  1025  1020
  1031  1033  1027  1023  1032  1034  1029  1025
  1033   613   621  1027  1034   614   622  1029
  1033  1035   605   613  1034  1036   606   614
  1035  1037   597   605  1036  1038   598   606
  1037  1039   589   597  1038  1040   590   598
  1039  1041   581   589  1040  1042   582   590
  1041  1043   573   581  1042  1044   574   582
  1043  1045   565   573  1044  1046   566   574
  1045  1047   557   565  1046  1048   558   566
  1047  1049   549   557  1048  1050   550   558
  1049  1051   539   549  1050  1052   541   550
  1051  1053   540   539  1052  1054   542   541
  1031  1055  1035  1033  1032  1056  1036  1034
  1055  1057  1037  1035  1056  1058  1038  1036
  1057  1059  1039  1037  1058  1060  1040  1038
  1059  1061  1041  1039  1060  1062  1042  1040
  1061  1063  1043  1041  1062  1064  1044  1042
  1063  1065  1045  1043  1064  1066  1046  1044
  1065  1067  1047  1045  1066  1068  1048  1046
  1067  1069  1049  1047  1068  1070  1050  1048
  1069  1071  1051  1049  1070  1072  1052  1050
  1071  1073  1053  1051  1072  1074  1054  1052
   999  1075  1055  1031  1001  1076  1056  1032
  1075  1077  1057  1055  1076  1078  1058  1056
  1077  1079  1059  1057  1078  1080  1060  1058
  1079  1081  1061  1059  1080  1082  1062  1060
  1081  1083  1063  1061  1082  1084  1064  1062
  1083  1085  1065  1063  1084  1086  1066  1064
  1085  1087  1067  1065  1086  1088  1068  1066
  1087  1089  1069  1067  1088  1090  1070  1068
  1089  1091  1071  1069  1090  1092  1072  1070
  1091  1093  1073  1071  1092  1094  1074  1072
  1091  1095  1096  1093  1092  1097  1098  1094
  1095  1099  1100  1096  1097  1101  1102  1098
  1099  1103  1104  1100  1101  1105  1106  1102
  1103  1107  1108  1104  1105  1109  1110  1106
  1107  1111  1112  1108  1109  1113  1114  1110
  1111  1115  1116  1112  1113  1117  1118  1114
  1089  1119  1095  1091  1090  1120  1097  1092
  1119  1121  1099  1095  1120  1122  1101  1097
  1121  1123  1103  1099  1122  1124  1105  1101
  1123  1125  1107  1103  1124  1126  1109  1105
  1125  1127  1111  1107  1126  1128  1113  1109
  1127  1129  1115  1111  1128  1130  1117  1113
  1087  1131  1119  1089  1088  1132  1120  1090
  1131  1133  1121  1119  1132  1134  1122  1120
  1133  1135  1123  1121  1134  1136  1124  1122
  1135  1137  1125  1123  1136  1138  1126  1124
  1137  1139  1127  1125  1138  1140  1128  1126
  1139  1141  1129  1127  1140  1142  1130  1128
  1085  1143  1131  1087  1086  1144  1132  1088
  1143  1145  1133  1131  1144  1146  1134  1132
  1145  1147  1135  1133  1146  1148  1136  1134
  1147  1149  1137  1135  1148  1150  1138  1136
  1149  1151  1139  1137  1150  1152  1140  1138
  1151  1153  1141  1139  1152  1154  1142  1140
  1083  1155  1143  1085  1084  1156  1144  1086
  1155  1157  1145  1143  1156  1158  1146  1144
  1157  1159  1147  1145  1158  1160  1148  1146
  1159  1161  1149  1147  1160  1162  1150  1148
  1161  1163  1151  1149  1162  1164  1152  1150
  1163  1165  1153  1151  1164  1166  1154  1152
  1081  1167  1155  1083  1082  1168  1156  1084
  1167  1169  1157  1155  1168  1170  1158  1156
  1169  1171  1159  1157  1170  1172  1160  1158
  1171  1173  1161  1159  1172  1174  1162  1160
  1173  1175  1163  1161  1174  1176  1164  1162
  1175  1177  1165  1163  1176  1178  1166  1164
  1079  1179  1167  1081  1080  1180  1168  1082
  1179  1181  1169  1167  1180  1182  1170  1168
  1181  1183  1171  1169  1182  1184  1172  1170
  1183  1185  1173  1171  1184  1186  1174  1172
  1185  1187  1175  1173  1186  1188  1176  1174
  1187  1189  1177  1175  1188  1190  1178  1176
  1077  1191  1179  1079  1078  1192  1180  1080
  1191  1193  1181  1179  1192  1194  1182  1180
  1193  1195  1183  1181  1194  1196  1184  1182
  1195  1197  1185  1183  1196  1198  1186  1184
  1197  1199  1187  1185  1198  1200  1188  1186
  1199  1201  1189  1187  1200  1202  1190  1188
  1075  1203  1191  1077  1076  1204  1192  1078
  1203  1205  1193  1191  1204  1206  1194  1192
  1205  1207  1195  1193  1206  1208  1196  1194
  1207  1209  1197  1195  1208  1210  1198  1196
  1209  1211  1199  1197  1210  1212  1200  1198
  1211  1213  1201  1199  1212  1214  1202  1200
   999   991  1203  1075  1001   993  1204  1076
   991   983  1205  1203   993   985  1206  1204
   983   975  1207  1205   985   977  1208  1206
   975   967  1209  1207   977   969  1210  1208
   967   951  1211  1209   969   955  1212  1210
   951   954  1213  1211   955   958  1214  1212
     5     6     7     8  1215  1216  1217  1218
     6    11    12     7  1216  1219  1220  1217
    11    15    16    12  1219  1221  1222  1220
    19    20     6     5  1223  1224  1216  1215
    20    22    11     6  1224  1225  1219  1216
    22    24    15    11  1225  1226  1221  1219
    27    28    20    19  1227  1228  1224  1223
    28    30    22    20  1228  1229  1225  1224
    30    32    24    22  1229  1230  1226  1225
    35    36    28    27  1231  1232  1228  1227
    36    38    30    28  1232  1233  1229  1228
    38    40    32    30  1233  1234  1230  1229
    43    44    36    35  1235  1236  1232  1231
    44    46    38    36  1236  1237  1233  1232
    46    48    40    38  1237  1238  1234  1233
    46    51    52    48  1237  1239  1240  1238
    51    55    56    52  1239  1241  1242  1240
    44    58    51    46  1236  1243  1239  1237
    58    60    55    51  1243  1244  1241  1239
    43    62    58    44  1235  1245  1243  1236
    62    64    60    58  1245  1246  1244  1243
    62    67    68    64  1245  1247  1248  1246
    67    71    72    68  1247  1249  1250  1248
    71    75    76    72  1249  1251  1252  1250
    75    79    80    76  1251  1253  1254  1252
    43    82    67    62  1235  1255  1247  1245
    82    84    71    67  1255  1256  1249  1247
    84    86    75    71  1256  1257  1251  1249
    86    88    79    75  1257  1258  1253  1251
    86    91    92    88  1257  1259  1260  1258
    91    95    96    92  1259  1261  1262  1260
    95    99   100    96  1261  1263  1264  1262
    99   103   104   100  1263  1265  1266  1264
   103   107   108   104  1265  1267  1268  1266
   107   111   112   108  1267  1269  1270  1268
   111   115   116   112  1269  1271  1272  1270
   115   119   120   116  1271  1273  1274  1272
   119   123   124   120  1273  1275  1276  1274
   123   127   128   124  1275  1277  1278  1276
   127   131   132   128  1277  1279  1280  1278
    84   134    91    86  1256  1281  1259  1257
   134   136    95    91  1281  1282  1261  1259
   136   138    99    95  1282  1283  1263  1261
   138   140   103    99  1283  1284  1265  1263
   140   142   107   103  1284  1285  1267  1265
   142   144   111   107  1285  1286  1269  1267
   144   146   115   111  1286  1287  1271  1269
   146   148   119   115  1287  1288  1273  1271
   148   150   123   119  1288  1289  1275  1273
   150   152   127   123  1289  1290  1277  1275
   152   154   131   127  1290  1291  1279  1277
    82   156   134    84  1255  1292  1281  1256
   156   158   136   134  1292  1293  1282  1281
   158   160   138   136  1293  1294  1283  1282
   160   162   140   138  1294  1295  1284  1283
   162   164   142   140  1295  1296  1285  1284
   164   166   144   142  1296  1297  1286  1285
   166   168   146   144  1297  1298  1287  1286
   168   170   148   146  1298  1299  1288  1287
   170   172   150   148  1299  1300  1289  1288
   172   174   152   150  1300  1301  1290  1289
   174   176   154   152  1301  1302  1291  1290
    43   178   156    82  1235  1303  1292  1255
   178   180   158   156  1303  1304  1293  1292
   180   182   160   158  1304  1305  1294  1293
   182   184   162   160  1305  1306  1295  1294
   184   186   164   162  1306  1307  1296  1295
   186   188   166   164  1307  1308  1297  1296
   188   190   168   166  1308  1309  1298  1297
   190   192   170   168  1309  1310  1299  1298
   192   194   172   170  1310  1311  1300  1299
   194   196   174   172  1311  1312  1301  1300
   196   198   176   174  1312  1313  1302  1301
   196   201   202   198  1312  1314  1315  1313
   201   205   206   202  1314  1316  1317  1315
   205   209   210   206  1316  1318  1319  1317
   209   213   214   210  1318  1320  1321  1319
   213   217   218   214  1320  1322  1323  1321
   194   220   201   196  1311  1324  1314  1312
   220   222   205   201  1324  1325  1316  1314
   222   224   209   205  1325  1326  1318  1316
   224   226   213   209  1326  1327  1320  1318
   226   228   217   213  1327  1328  1322  1320
   192   230   220   194  1310  1329  1324  1311
   230   232   222   220  1329  1330  1325  1324
   232   234   224   222  1330  1331  1326  1325
   234   236   226   224  1331  1332  1327  1326
   236   238   228   226  1332  1333  1328  1327
   190   240   230   192  1309  1334  1329  1310
   240   242   232   230  1334  1335  1330  1329
   242   244   234   232  1335  1336  1331  1330
   244   246   236   234  1336  1337  1332  1331
   246   248   238   236  1337  1338  1333  1332
   188   250   240   190  1308  1339  1334  1309
   250   252   242   240  1339  1340  1335  1334
   252   254   244   242  1340  1341  1336  1335
   254   256   246   244  1341  1342  1337  1336
   256   258   248   246  1342  1343  1338  1337
   186   260   250   188  1307  1344  1339  1308
   260   262   252   250  1344  1345  1340  1339
   262   264   254   252  1345  1346  1341  1340
   264   266   256   254  1346  1347  1342  1341
   266   268   258   256  1347  1348  1343  1342
   184   270   260   186  1306  1349  1344  1307
   270   272   262   260  1349  1350  1345  1344
   272   274   264   262  1350  1351  1346  1345
   274   276   266   264  1351  1352  1347  1346
   276   278   268   266  1352  1353  1348  1347
   182   280   270   184  1305  1354  1349  1306
   280   282   272   270  1354  1355  1350  1349
   282   284   274   272  1355  1356  1351  1350
   284   286   276   274  1356  1357  1352  1351
   286   288   278   276  1357  1358  1353  1352
   180   290   280   182  1304  1359  1354  1305
   290   292   282   280  1359  1360  1355  1354
   292   294   284   282  1360  1361  1356  1355
   294   296   286   284  1361  1362  1357  1356
   296   298   288   286  1362  1363  1358  1357
   178   300   290   180  1303  1364  1359  1304
   300   302   292   290  1364  1365  1360  1359
   302   304   294   292  1365  1366  1361  1360
   304   306   296   294  1366  1367  1362  1361
   306   308   298   296  1367  1368  1363  1362
    43    35   300   178  1235  1231  1364  1303
    35    27   302   300  1231  1227  1365  1364
    27    19   304   302  1227  1223  1366  1365
    19     5   306   304  1223  1215  1367  1366
     5     8   308   306  1215  1218  1368  1367
   313   314   315   316  1369  1370  1371  1372
   314   319   320   315  1370  1373  1374  1371
   319   323   324   320  1373  1375  1376  1374
   323    52    56   324  1375  1240  1242  1376
   323   326    48    52  1375  1377  1238  1240
   326   328    40    48  1377  1378  1234  1238
   328   330    32    40  1378  1379  1230  1234
   330   332    24    32  1379  1380  1226  1230
   332   334    15    24  1380  1381  1221  1226
   334   336    16    15  1381  1382  1222  1221
   319   338   326   323  1373  1383  1377  1375
   338   340   328   326  1383  1384  1378  1377
   340   342   330   328  1384  1385  1379  1378
   342   344   332   330  1385  1386  1380  1379
   344   346   334   332  1386  1387  1381  1380
   346   348   336   334  1387  1388  1382  1381
   314   350   338   319  1370  1389  1383  1373
   350   352   340   338  1389  1390  1384  1383
   352   354   342   340  1390  1391  1385  1384
   354   356   344   342  1391  1392  1386  1385
   356   358   346   344  1392  1393  1387  1386
   358   360   348   346  1393  1394  1388  1387
   313   362   350   314  1369  1395  1389  1370
   362   364   352   350  1395  1396  1390  1389
   364   366   354   352  1396  1397  1391  1390
   366   368   356   354  1397  1398  1392  1391
   368   370   358   356  1398  1399  1393  1392
   370   372   360   358  1399  1400  1394  1393
   370   375   376   372  1399  1401  1402  1400
   375   379   380   376  1401  1403  1404  1402
   379   383   384   380  1403  1405  1406  1404
   383   387   388   384  1405  1407  1408  1406
   387   391   392   388  1407  1409  1410  1408
   391   395   396   392  1409  1411  1412  1410
   395   399   400   396  1411  1413  1414  1412
   399   403   404   400  1413  1415  1416  1414
   403   407   408   404  1415  1417  1418  1416
   407   411   412   408  1417  1419  1420  1418
   411   415   416   412  1419  1421  1422  1420
   368   418   375   370  1398  1423  1401  1399
   418   420   379   375  1423  1424  1403  1401
   420   422   383   379  1424  1425  1405  1403
   422   424   387   383  1425  1426  1407  1405
   424   426   391   387  1426  1427  1409  1407
   426   428   395   391  1427  1428  1411  1409
   428   430   399   395  1428  1429  1413  1411
   430   432   403   399  1429  1430  1415  1413
   432   434   407   403  1430  1431  1417  1415
   434   436   411   407  1431  1432  1419  1417
   436   438   415   411  1432  1433  1421  1419
   366   440   418   368  1397  1434  1423  1398
   440   442   420   418  1434  1435  1424  1423
   442   444   422   420  1435  1436  1425  1424
   444   446   424   422  1436  1437  1426  1425
   446   448   426   424  1437  1438  1427  1426
   448   450   428   426  1438  1439  1428  1427
   450   452   430   428  1439  1440  1429  1428
   452   454   432   430  1440  1441  1430  1429
   454   456   434   432  1441  1442  1431  1430
   456   458   436   434  1442  1443  1432  1431
   458   460   438   436  1443  1444  1433  1432
   364   462   440   366  1396  1445  1434  1397
   462   464   442   440  1445  1446  1435  1434
   464   466   444   442  1446  1447  1436  1435
   466   468   446   444  1447  1448  1437  1436
   468   470   448   446  1448  1449  1438  1437
   470   472   450   448  1449  1450  1439  1438
   472   474   452   450  1450  1451  1440  1439
   474   476   454   452  1451  1452  1441  1440
   476   478   456   454  1452  1453  1442  1441
   478   480   458   456  1453  1454  1443  1442
   480   482   460   458  1454  1455  1444  1443
   362   484   462   364  1395  1456  1445  1396
   484   486   464   462  1456  1457  1446  1445
   486   488   466   464  1457  1458  1447  1446
   488   490   468   466  1458  1459  1448  1447
   490   492   470   468  1459  1460  1449  1448
   492   494   472   470  1460  1461  1450  1449
   494   496   474   472  1461  1462  1451  1450
   496   498   476   474  1462  1463  1452  1451
   498   500   478   476  1463  1464  1453  1452
   500   502   480   478  1464  1465  1454  1453
   502   504   482   480  1465  1466  1455  1454
   313   506   484   362  1369  1467  1456  1395
   506   508   486   484  1467  1468  1457  1456
   508   510   488   486  1468  1469  1458  1457
   510   512   490   488  1469  1470  1459  1458
   512   514   492   490  1470  1471  1460  1459
   514   516   494   492  1471  1472  1461  1460
   516   518   496   494  1472  1473  1462  1461
   518   520   498   496  1473  1474  1463  1462
   520   522   500   498  1474  1475  1464  1463
   522   524   502   500  1475  1476  1465  1464
   524   526   504   502  1476  1477  1466  1465
   524   529   530   526  1476  1478  1479  1477
   529   533   534   530  1478  1480  1481  1479
   533   537   538   534  1480  1482  1483  1481
   537   541   542   538  1482  1484  1485  1483
   522   544   529   524  1475  1486  1478  1476
   544   546   533   529  1486  1487  1480  1478
   546   548   537   533  1487  1488  1482  1480
   548   550   541   537  1488  1489  1484  1482
   520   552   544   522  1474  1490  1486  1475
   552   554   546   544  1490  1491  1487  1486
   554   556   548   546  1491  1492  1488  1487
   556   558   550   548  1492  1493  1489  1488
   518   560   552   520  1473  1494  1490  1474
   560   562   554   552  1494  1495  1491  1490
   562   564   556   554  1495  1496  1492  1491
   564   566   558   556  1496  1497  1493  1492
   516   568   560   518  1472  1498  1494  1473
   568   570   562   560  1498  1499  1495  1494
   570   572   564   562  1499  1500  1496  1495
   572   574   566   564  1500  1501  1497  1496
   514   576   568   516  1471  1502  1498  1472
   576   578   570   568  1502  1503  1499  1498
   578   580   572   570  1503  1504  1500  1499
   580   582   574   572  1504  1505  1501  1500
   512   584   576   514  1470  1506  1502  1471
   584   586   578   576  1506  1507  1503  1502
   586   588   580   578  1507  1508  1504  1503
   588   590   582   580  1508  1509  1505  1504
   510   592   584   512  1469  1510  1506  1470
   592   594   586   584  1510  1511  1507  1506
   594   596   588   586  1511  1512  1508  1507
   596   598   590   588  1512  1513  1509  1508
   508   600   592   510  1468  1514  1510  1469
   600   602   594   592  1514  1515  1511  1510
   602   604   596   594  1515  1516  1512  1511
   604   606   598   596  1516  1517  1513  1512
   506   608   600   508  1467  1518  1514  1468
   608   610   602   600  1518  1519  1515  1514
   610   612   604   602  1519  1520  1516  1515
   612   614   606   604  1520  1521  1517  1516
   313   616   608   506  1369  1522  1518  1467
   616   618   610   608  1522  1523  1519  1518
   618   620   612   610  1523  1524  1520  1519
   620   622   614   612  1524  1525  1521  1520
   620   625   626   622  1524  1526  1527  1525
   618   628   625   620  1523  1528  1526  1524
   616   630   628   618  1522  1529  1528  1523
   313   316   630   616  1369  1372  1529  1522
   635   636   637   638  1530  1531  1532  1533
   636   641   642   637  1531  1534  1535  1532
   641   645   646   642  1534  1536  1537  1535
   641   649   650   645  1534  1538  1539  1536
   649   653   654   650  1538  1540  1541  1539
   653   657   658   654  1540  1542  1543  1541
   657   661   662   658  1542  1544  1545  1543
   661   665   666   662  1544  1546  1547  1545
   665   669   670   666  1546  1548  1549  1547
   669   673   674   670  1548  1550  1551  1549
   636   676   649   641  1531  1552  1538  1534
   676   678   653   649  1552  1553  1540  1538
   678   680   657   653  1553  1554  1542  1540
   680   682   661   657  1554  1555  1544  1542
   682   684   665   661  1555  1556  1546  1544
   684   686   669   665  1556  1557  1548  1546
   686   688   673   669  1557  1558  1550  1548
   635   690   676   636  1530  1559  1552  1531
   690   692   678   676  1559  1560  1553  1552
   692   694   680   678  1560  1561  1554  1553
   694   696   682   680  1561  1562  1555  1554
   696   698   684   682  1562  1563  1556  1555
   698   700   686   684  1563  1564  1557  1556
   700   702   688   686  1564  1565  1558  1557
   700   705   706   702  1564  1566  1567  1565
   705   709   710   706  1566  1568  1569  1567
   709   713   714   710  1568  1570  1571  1569
   713   717   718   714  1570  1572  1573  1571
   717   721   722   718  1572  1574  1575  1573
   721   725   726   722  1574  1576  1577  1575
   725   729   730   726  1576  1578  1579  1577
   729   733   734   730  1578  1580  1581  1579
   733   737   738   734  1580  1582  1583  1581
   737   741   742   738  1582  1584  1585  1583
   741   745   746   742  1584  1586  1587  1585
   745   749   750   746  1586  1588  1589  1587
   698   752   705   700  1563  1590  1566  1564
   752   754   709   705  1590  1591  1568  1566
   754   756   713   709  1591  1592  1570  1568
   756   758   717   713  1592  1593  1572  1570
   758   760   721   717  1593  1594  1574  1572
   760   762   725   721  1594  1595  1576  1574
   762   764   729   725  1595  1596  1578  1576
   764   766   733   729  1596  1597  1580  1578
   766   768   737   733  1597  1598  1582  1580
   768   770   741   737  1598  1599  1584  1582
   770   772   745   741  1599  1600  1586  1584
   772   774   749   745  1600  1601  1588  1586
   696   776   752   698  1562  1602  1590  1563
   776   778   754   752  1602  1603  1591  1590
   778   780   756   754  1603  1604  1592  1591
   780   782   758   756  1604  1605  1593  1592
   782   784   760   758  1605  1606  1594  1593
   784   786   762   760  1606  1607  1595  1594
   786   788   764   762  1607  1608  1596  1595
   788   790   766   764  1608  1609  1597  1596
   790   792   768   766  1609  1610  1598  1597
   792   794   770   768  1610  1611  1599  1598
   794   796   772   770  1611  1612  1600  1599
   796   798   774   772  1612  1613  1601  1600
   694   800   776   696  1561  1614  1602  1562
   800   802   778   776  1614  1615  1603  1602
   802   804   780   778  1615  1616  1604  1603
   804   806   782   780  1616  1617  1605  1604
   806   808   784   782  1617  1618  1606  1605
   808   810   786   784  1618  1619  1607  1606
   810   812   788   786  1619  1620  1608  1607
   812   814   790   788  1620  1621  1609  1608
   814   816   792   790  1621  1622  1610  1609
   816   818   794   792  1622  1623  1611  1610
   818   820   796   794  1623  1624  1612  1611
   820   822   798   796  1624  1625  1613  1612
   692   824   800   694  1560  1626  1614  1561
   824   826   802   800  1626  1627  1615  1614
   826   828   804   802  1627  1628  1616  1615
   828   830   806   804  1628  1629  1617  1616
   830   832   808   806  1629  1630  1618  1617
   832   834   810   808  1630  1631  1619  1618
   834   836   812   810  1631  1632  1620  1619
   836   838   814   812  1632  1633  1621  1620
   838   840   816   814  1633  1634  1622  1621
   840   842   818   816  1634  1635  1623  1622
   842   844   820   818  1635  1636  1624  1623
   844   846   822   820  1636  1637  1625  1624
   690   848   824   692  1559  1638  1626  1560
   848   850   826   824  1638  1639  1627  1626
   850   852   828   826  1639  1640  1628  1627
   852   854   830   828  1640  1641  1629  1628
   854   856   832   830  1641  1642  1630  1629
   856   858   834   832  1642  1643  1631  1630
   858   860   836   834  1643  1644  1632  1631
   860   862   838   836  1644  1645  1633  1632
   862   864   840   838  1645  1646  1634  1633
   864   866   842   840  1646  1647  1635  1634
   866   868   844   842  1647  1648  1636  1635
   868   870   846   844  1648  1649  1637  1636
   635   872   848   690  1530  1650  1638  1559
   872   874   850   848  1650  1651  1639  1638
   874   876   852   850  1651  1652  1640  1639
   876   878   854   852  1652  1653  1641  1640
   878   880   856   854  1653  1654  1642  1641
   880   882   858   856  1654  1655  1643  1642
   882   884   860   858  1655  1656  1644  1643
   884   886   862   860  1656  1657  1645  1644
   886   888   864   862  1657  1658  1646  1645
   888   890   866   864  1658  1659  1647  1646
   890   892   868   866  1659  1660  1648  1647
   892   894   870   868  1660  1661  1649  1648
   892   897   898   894  1660  1662  1663  1661
   897   901   902   898  1662  1664  1665  1663
   901   128   132   902  1664  1278  1280  1665
   890   904   897   892  1659  1666  1662  1660
   904   906   901   897  1666  1667  1664  1662
   906   124   128   901  1667  1276  1278  1664
   888   908   904   890  1658  1668  1666  1659
   908   910   906   904  1668  1669  1667  1666
   910   120   124   906  1669  1274  1276  1667
   886   912   908   888  1657  1670  1668  1658
   912   914   910   908  1670  1671  1669  1668
   914   116   120   910  1671  1272  1274  1669
   884   916   912   886  1656  1672  1670  1657
   916   918   914   912  1672  1673  1671  1670
   918   112   116   914  1673  1270  1272  1671
   882   920   916   884  1655  1674  1672  1656
   920   922   918   916  1674  1675  1673  1672
   922   108   112   918  1675  1268  1270  1673
   880   924   920   882  1654  1676  1674  1655
   924   926   922   920  1676  1677  1675  1674
   926   104   108   922  1677  1266  1268  1675
   878   928   924   880  1653  1678  1676  1654
   928   930   926   924  1678  1679  1677  1676
   930   100   104   926  1679  1264  1266  1677
   876   932   928   878  1652  1680  1678  1653
   932   934   930   928  1680  1681  1679  1678
   934    96   100   930  1681  1262  1264  1679
   874   936   932   876  1651  1682  1680  1652
   936   938   934   932  1682  1683  1681  1680
   938    92    96   934  1683  1260  1262  1681
   872   940   936   874  1650  1684  1682  1651
   940   942   938   936  1684  1685  1683  1682
   942    88    92   938  1685  1258  1260  1683
   635   944   940   872  1530  1686  1684  1650
   944   946   942   940  1686  1687  1685  1684
   946    79    88   942  1687  1253  1258  1685
   946   948    80    79  1687  1688  1254  1253
   944   950   948   946  1686  1689  1688  1687
   635   638   950   944  1530  1533  1689  1686
   955   956   957   958  1690  1691  1692  1693
   956   961   962   957  1691  1694  1695  1692
   961   965   966   962  1694  1696  1697  1695
   965   670   674   966  1696  1549  1551  1697
   969   970   956   955  1698  1699  1691  1690
   970   972   961   956  1699  1700  1694  1691
   972   974   965   961  1700  1701  1696  1694
   974   666   670   965  1701  1547  1549  1696
   977   978   970   969  1702  1703  1699  1698
   978   980   972   970  1703  1704  1700  1699
   980   982   974   972  1704  1705  1701  1700
   982   662   666   974  1705  1545  1547  1701
   985   986   978   977  1706  1707  1703  1702
   986   988   980   978  1707  1708  1704  1703
   988   990   982   980  1708  1709  1705  1704
   990   658   662   982  1709  1543  1545  1705
   993   994   986   985  1710  1711  1707  1706
   994   996   988   986  1711  1712  1708  1707
   996   998   990   988  1712  1713  1709  1708
   998   654   658   990  1713  1541  1543  1709
  1001  1002   994   993  1714  1715  1711  1710
  1002  1004   996   994  1715  1716  1712  1711
  1004  1006   998   996  1716  1717  1713  1712
  1006   650   654   998  1717  1539  1541  1713
  1006  1008   645   650  1717  1718  1536  1539
  1008  1010   646   645  1718  1719  1537  1536
  1004  1012  1008  1006  1716  1720  1718  1717
  1012  1014  1010  1008  1720  1721  1719  1718
  1002  1016  1012  1004  1715  1722  1720  1716
  1016  1018  1014  1012  1722  1723  1721  1720
  1001  1020  1016  1002  1714  1724  1722  1715
  1020  1022  1018  1016  1724  1725  1723  1722
  1020  1025  1026  1022  1724  1726  1727  1725
  1025  1029  1030  1026  1726  1728  1729  1727
  1029   622   626  1030  1728  1525  1527  1729
  1001  1032  1025  1020  1714  1730  1726  1724
  1032  1034  1029  1025  1730  1731  1728  1726
  1034   614   622  1029  1731  1521  1525  1728
  1034  1036   606   614  1731  1732  1517  1521
  1036  1038   598   606  1732  1733  1513  1517
  1038  1040   590   598  1733  1734  1509  1513
  1040  1042   582   590  1734  1735  1505  1509
  1042  1044   574   582  1735  1736  1501  1505
  1044  1046   566   574  1736  1737  1497  1501
  1046  1048   558   566  1737  1738  1493  1497
  1048  1050   550   558  1738  1739  1489  1493
  1050  1052   541   550  1739  1740  1484  1489
  1052  1054   542   541  1740  1741  1485  1484
  1032  1056  1036  1034  1730  1742  1732  1731
  1056  1058  1038  1036  1742  1743  1733  1732
  1058  1060  1040  1038  1743  1744  1734  1733
  1060  1062  1042  1040  1744  1745  1735  1734
  1062  1064  1044  1042  1745  1746  1736  1735
  1064  1066  1046  1044  1746  1747  1737  1736
  1066  1068  1048  1046  1747  1748  1738  1737
  1068  1070  1050  1048  1748  1749  1739  1738
  1070  1072  1052  1050  1749  1750  1740  1739
  1072  1074  1054  1052  1750  1751  1741  1740
  1001  1076  1056  1032  1714  1752  1742  1730
  1076  1078  1058  1056  1752  1753  1743  1742
  1078  1080  1060  1058  1753  1754  1744  1743
  1080  1082  1062  1060  1754  1755  1745  1744
  1082  1084  1064  1062  1755  1756  1746  1745
  1084  1086  1066  1064  1756  1757  1747  1746
  1086  1088  1068  1066  1757  1758  1748  1747
  1088  1090  1070  1068  1758  1759  1749  1748
  1090  1092  1072  1070  1759  1760  1750  1749
  1092  1094  1074  1072  1760  1761  1751  1750
  1092  1097  1098  1094  1760  1762  1763  1761
  1097  1101  1102  1098  1762  1764  1765  1763
  1101  1105  1106  1102  1764  1766  1767  1765
  1105  1109  1110  1106  1766  1768  1769  1767
  1109  1113  1114  1110  1768  1770  1771  1769
  1113  1117  1118  1114  1770  1772  1773  1771
  1090  1120  1097  1092  1759  1774  1762  1760
  1120  1122  1101  1097  1774  1775  1764  1762
  1122  1124  1105  1101  1775  1776  1766  1764
  1124  1126  1109  1105  1776  1777  1768  1766
  1126  1128  1113  1109  1777  1778  1770  1768
  1128  1130  1117  1113  1778  1779  1772  1770
  1088  1132  1120  1090  1758  1780  1774  1759
  1132  1134  1122  1120  1780  1781  1775  1774
  1134  1136  1124  1122  1781  1782  1776  1775
  1136  1138  1126  1124  1782  1783  1777  1776
  1138  1140  1128  1126  1783  1784  1778  1777
  1140  1142  1130  1128  1784  1785  1779  1778
  1086  1144  1132  1088  1757  1786  1780  1758
  1144  1146  1134  1132  1786  1787  1781  1780
  1146  1148  1136  1134  1787  1788  1782  1781
  1148  1150  1138  1136  1788  1789  1783  1782
  1150  1152  1140  1138  1789  1790  1784  1783
  1152  1154  1142  1140  1790  1791  1785  1784
  1084  1156  1144  1086  1756  1792  1786  1757
  1156  1158  1146  1144  1792  1793  1787  1786
  1158  1160  1148  1146  1793  1794  1788  1787
  1160  1162  1150  1148  1794  1795  1789  1788
  1162  1164  1152  1150  1795  1796  1790  1789
  1164  1166  1154  1152  1796  1797  1791  1790
  1082  1168  1156  1084  1755  1798  1792  1756
  1168  1170  1158  1156  1798  1799  1793  1792
  1170  1172  1160  1158  1799  1800  1794  1793
  1172  1174  1162  1160  1800  1801  1795  1794
  1174  1176  1164  1162  1801  1802  1796  1795
  1176  1178  1166  1164  1802  1803  1797  1796
  1080  1180  1168  1082  1754  1804  1798  1755
  1180  1182  1170  1168  1804  1805  1799  1798
  1182  1184  1172  1170  1805  1806  1800  1799
  1184  1186  1174  1172  1806  1807  1801  1800
  1186  1188  1176  1174  1807  1808  1802  1801
  1188  1190  1178  1176  1808  1809  1803  1802
  1078  1192  1180  1080  1753  1810  1804  1754
  1192  1194  1182  1180  1810  1811  1805  1804
  1194  1196  1184  1182  1811  1812  1806  1805
  1196  1198  1186  1184  1812  1813  1807  1806
  1198  1200  1188  1186  1813  1814  1808  1807
  1200  1202  1190  1188  1814  1815  1809  1808
  1076  1204  1192  1078  1752  1816  1810  1753
  1204  1206  1194  1192  1816  1817  1811  1810
  1206  1208  1196  1194  1817  1818  1812  1811
  1208  1210  1198  1196  1818  1819  1813  1812
  1210  1212  1200  1198  1819  1820  1814  1813
  1212  1214  1202  1200  1820  1821  1815  1814
  1001   993  1204  1076  1714  1710  1816  1752
   993   985  1206  1204  1710  1706  1817  1816
   985   977  1208  1206  1706  1702  1818  1817
   977   969  1210  1208  1702  1698  1819  1818
   969   955  1212  1210  1698  1690  1820  1819
   955   958  1214  1212  1690  1693  1821  1820
  1215  1216  1217  1218  1822  1823  1824  1825
  1216  1219  1220  1217  1823  1826  1827  1824
  1219  1221  1222  1220  1826  1828  1829  1827
  1223  1224  1216  1215  1830  1831  1823  1822
  1224  1225  1219  1216  1831  1832  1826  1823
  1225  1226  1221  1219  1832  1833  1828  1826
  1227  1228  1224  1223  1834  1835  1831  1830
  1228  1229  1225  1224  1835  1836  1832  1831
  1229  1230  1226  1225  1836  1837  1833  1832
  1231  1232  1228  1227  1838  1839  1835  1834
  1232  1233  1229  1228  1839  1840  1836  1835
  1233  1234  1230  1229  1840  1841  1837  1836
  1235  1236  1232  1231  1842  1843  1839  1838
  1236  1237  1233  1232  1843  1844  1840  1839
  1237  1238  1234  1233  1844  1845  1841  1840
  1237  1239  1240  1238  1844  1846  1847  1845
  1239  1241  1242  1240  1846  1848  1849  1847
  1236  1243  1239  1237  1843  1850  1846  1844
  1243  1244  1241  1239  1850  1851  1848  1846
  1235  1245  1243  1236  1842  1852  1850  1843
  1245  1246  1244  1243  1852  1853  1851  1850
  1245  1247  1248  1246  1852  1854  1855  1853
  1247  1249  1250  1248  1854  1856  1857  1855
  1249  1251  1252  1250  1856  1858  1859  1857
  1251  1253  1254  1252  1858  1860  1861  1859
  1235  1255  1247  1245  1842  1862  1854  1852
  1255  1256  1249  1247  1862  1863  1856  1854
  1256  1257  1251  1249  1863  1864  1858  1856
  1257  1258  1253  1251  1864  1865  1860  1858
  1257  1259  1260  1258  1864  1866  1867  1865
  1259  1261  1262  1260  1866  1868  1869  1867
  1261  1263  1264  1262  1868  1870  1871  1869
  1263  1265  1266  1264  1870  1872  1873  1871
  1265  1267  1268  1266  1872  1874  1875  1873
  1267  1269  1270  1268  1874  1876  1877  1875
  1269  1271  1272  1270  1876  1878  1879  1877
  1271  1273  1274  1272  1878  1880  1881  1879
  1273  1275  1276  1274  1880  1882  1883  1881
  1275  1277  1278  1276  1882  1884  1885  1883
  1277  1279  1280  1278  1884  1886  1887  1885
  1256  1281  1259  1257  1863  1888  1866  1864
  1281  1282  1261  1259  1888  1889  1868  1866
  1282  1283  1263  1261  1889  1890  1870  1868
  1283  1284  1265  1263  1890  1891  1872  1870
  1284  1285  1267  1265  1891  1892  1874  1872
  1285  1286  1269  1267  1892  1893  1876  1874
  1286  1287  1271  1269  1893  1894  1878  1876
  1287  1288  1273  1271  1894  1895  1880  1878
  1288  1289  1275  1273  1895  1896  1882  1880
  1289  1290  1277  1275  1896  1897  1884  1882
  1290  1291  1279  1277  1897  1898  1886  1884
  1255  1292  1281  1256  1862  1899  1888  1863
  1292  1293  1282  1281  1899  1900  1889  1888
  1293  1294  1283  1282  1900  1901  1890  1889
  1294  1295  1284  1283  1901  1902  1891  1890
  1295  1296  1285  1284  1902  1903  1892  1891
  1296  1297  1286  1285  1903  1904  1893  1892
  1297  1298  1287  1286  1904  1905  1894  1893
  1298  1299  1288  1287  1905  1906  1895  1894
  1299  1300  1289  1288  1906  1907  1896  1895
  1300  1301  1290  1289  1907  1908  1897  1896
  1301  1302  1291  1290  1908  1909  1898  1897
  1235  1303  1292  1255  1842  1910  1899  1862
  1303  1304  1293  1292  1910  1911  1900  1899
  1304  1305  1294  1293  1911  1912  1901  1900
  1305  1306  1295  1294  1912  1913  1902  1901
  1306  1307  1296  1295  1913  1914  1903  1902
  1307  1308  1297  1296  1914  1915  1904  1903
  1308  1309  1298  1297  1915  1916  1905  1904
  1309  1310  1299  1298  1916  1917  1906  1905
  1310  1311  1300  1299  1917  1918  1907  1906
  1311  1312  1301  1300  1918  1919  1908  1907
  1312  1313  1302  1301  1919  1920  1909  1908
  1312  1314  1315  1313  1919  1921  1922  1920
  1314  1316  1317  1315  1921  1923  1924  1922
  1316  1318  1319  1317  1923  1925  1926  1924
  1318  1320  1321  1319  1925  1927  1928  1926
  1320  1322  1323  1321  1927  1929  1930  1928
  1311  1324  1314  1312  1918  1931  1921  1919
  1324  1325  1316  1314  1931  1932  1923  1921
  1325  1326  1318  1316  1932  1933  1925  1923
  1326  1327  1320  1318  1933  1934  1927  1925
  1327  1328  1322  1320  1934  1935  1929  1927
  1310  1329  1324  1311  1917  1936  1931  1918
  1329  1330  1325  1324  1936  1937  1932  1931
  1330  1331  1326  1325  1937  1938  1933  1932
  1331  1332  1327  1326  1938  1939  1934  1933
  1332  1333  1328  1327  1939  1940  1935  1934
  1309  1334  1329  1310  1916  1941  1936  1917
  1334  1335  1330  1329  1941  1942  1937  1936
  1335  1336  1331  1330  1942  1943  1938  1937
  1336  1337  1332  1331  1943  1944  1939  1938
  1337  1338  1333  1332  1944  1945  1940  1939
  1308  1339  1334  1309  1915  1946  1941  1916
  1339  1340  1335  1334  1946  1947  1942  1941
  1340  1341  1336  1335  1947  1948  1943  1942
  1341  1342  1337  1336  1948  1949  1944  1943
  1342  1343  1338  1337  1949  1950  1945  1944
  1307  1344  1339  1308  1914  1951  1946  1915
  1344  1345  1340  1339  1951  1952  1947  1946
  1345  1346  1341  1340  1952  1953  1948  1947
  1346  1347  1342  1341  1953  1954  1949  1948
  1347  1348  1343  1342  1954  1955  1950  1949
  1306  1349  1344  1307  1913  1956  1951  1914
  1349  1350  1345  1344  1956  1957  1952  1951
  1350  1351  1346  1345  1957  1958  1953  1952
  1351  1352  1347  1346  1958  1959  1954  1953
  1352  1353  1348  1347  1959  1960  1955  1954
  1305  1354  1349  1306  1912  1961  1956  1913
  1354  1355  1350  1349  1961  1962  1957  1956
  1355  1356  1351  1350  1962  1963  1958  1957
  1356  1357  1352  1351  1963  1964  1959  1958
  1357  1358  1353  1352  1964  1965  1960  1959
  1304  1359  1354  1305  1911  1966  1961  1912
  1359  1360  1355  1354  1966  1967  1962  1961
  1360  1361  1356  1355  1967  1968  1963  1962
  1361  1362  1357  1356  1968  1969  1964  1963
  1362  1363  1358  1357  1969  1970  1965  1964
  1303  1364  1359  1304  1910  1971  1966  1911
  1364  1365  1360  1359  1971  1972  1967  1966
  1365  1366  1361  1360  1972  1973  1968  1967
  1366  1367  1362  1361  1973  1974  1969  1968
  1367  1368  1363  1362  1974  1975  1970  1969
  1235  1231  1364  1303  1842  1838  1971  1910
  1231  1227  1365  1364  1838  1834  1972  1971
  1227  1223  1366  1365  1834  1830  1973  1972
  1223  1215  1367  1366  1830  1822  1974  1973
  1215  1218  1368  1367  1822  1825  1975  1974
  1369  1370  1371  1372  1976  1977  1978  1979
  1370  1373  1374  1371  1977  1980  1981  1978
  1373  1375  1376  1374  1980  1982  1983  1981
  1375  1240  1242  1376  1982  1847  1849  1983
  1375  1377  1238  1240  1982  1984  1845  1847
  1377  1378  1234  1238  1984  1985  1841  1845
  1378  1379  1230  1234  1985  1986  1837  1841
  1379  1380  1226  1230  1986  1987  1833  1837
  1380  1381  1221  1226  1987  1988  1828  1833
  1381  1382  1222  1221  1988  1989  1829  1828
  1373  1383  1377  1375  1980  1990  1984  1982
  1383  1384  1378  1377  1990  1991  1985  1984
  1384  1385  1379  1378  1991  1992  1986  1985
  1385  1386  1380  1379  1992  1993  1987  1986
  1386  1387  1381  1380  1993  1994  1988  1987
  1387  1388  1382  1381  1994  1995  1989  1988
  1370  1389  1383  1373  1977  1996  1990  1980
  1389  1390  1384  1383  1996  1997  1991  1990
  1390  1391  1385  1384  1997  1998  1992  1991
  1391  1392  1386  1385  1998  1999  1993  1992
  1392  1393  1387  1386  1999  2000  1994  1993
  1393  1394  1388  1387  2000  2001  1995  1994
  1369  1395  1389  1370  1976  2002  1996  1977
  1395  1396  1390  1389  2002  2003  1997  1996
  1396  1397  1391  1390  2003  2004  1998  1997
  1397  1398  1392  1391  2004  2005  1999  1998
  1398  1399  1393  1392  2005  2006  2000  1999
  1399  1400  1394  1393  2006  2007  2001  2000
  1399  1401  1402  1400  2006  2008  2009  2007
  1401  1403  1404  1402  2008  2010  2011  2009
  1403  1405  1406  1404  2010  2012  2013  2011
  1405  1407  1408  1406  2012  2014  2015  2013
  1407  1409  1410  1408  2014  2016  2017  2015
  1409  1411  1412  1410  2016  2018  2019  2017
  1411  1413  1414  1412  2018  2020  2021  2019
  1413  1415  1416  1414  2020  2022  2023  2021
  1415  1417  1418  1416  2022  2024  2025  2023
  1417  1419  1420  1418  2024  2026  2027  2025
  1419  1421  1422  1420  2026  2028  2029  2027
  1398  1423  1401  1399  2005  2030  2008  2006
  1423  1424  1403  1401  2030  2031  2010  2008
  1424  1425  1405  1403  2031  2032  2012  2010
  1425  1426  1407  1405  2032  2033  2014  2012
  1426  1427  1409  1407  2033  2034  2016  2014
  1427  1428  1411  1409  2034  2035  2018  2016
  1428  1429  1413  1411  2035  2036  2020  2018
  1429  1430  1415  1413  2036  2037  2022  2020
  1430  1431  1417  1415  2037  2038  2024  2022
  1431  1432  1419  1417  2038  2039  2026  2024
  1432  1433  1421  1419  2039  2040  2028  2026
  1397  1434  1423  1398  2004  2041  2030  2005
  1434  1435  1424  1423  2041  2042  2031  2030
  1435  1436  1425  1424  2042  2043  2032  2031
  1436  1437  1426  1425  2043  2044  2033  2032
  1437  1438  1427  1426  2044  2045  2034  2033
  1438  1439  1428  1427  2045  2046  2035  2034
  1439  1440  1429  1428  2046  2047  2036  2035
  1440  1441  1430  1429  2047  2048  2037  2036
  1441  1442  1431  1430  2048  2049  2038  2037
  1442  1443  1432  1431  2049  2050  2039  2038
  1443  1444  1433  1432  2050  2051  2040  2039
  1396  1445  1434  1397  2003  2052  2041  2004
  1445  1446  1435  1434  2052  2053  2042  2041
  1446  1447  1436  1435  2053  2054  2043  2042
  1447  1448  1437  1436  2054  2055  2044  2043
  1448  1449  1438  1437  2055  2056  2045  2044
  1449  1450  1439  1438  2056  2057  2046  2045
  1450  1451  1440  1439  2057  2058  2047  2046
  1451  1452  1441  1440  2058  2059  2048  2047
  1452  1453  1442  1441  2059  2060  2049  2048
  1453  1454  1443  1442  2060  2061  2050  2049
  1454  1455  1444  1443  2061  2062  2051  2050
  1395  1456  1445  1396  2002  2063  2052  2003
  1456  1457  1446  1445  2063  2064  2053  2052
  1457  1458  1447  1446  2064  2065  2054  2053
  1458  1459  1448  1447  2065  2066  2055  2054
  1459  1460  1449  1448  2066  2067  2056  2055
  1460  1461  1450  1449  2067  2068  2057  2056
  1461  1462  1451  1450  2068  2069  2058  2057
  1462  1463  1452  1451  2069  2070  2059  2058
  1463  1464  1453  1452  2070  2071  2060  2059
  1464  1465  1454  1453  2071  2072  2061  2060
  1465  1466  1455  1454  2072  2073  2062  2061
  1369  1467  1456  1395  1976  2074  2063  2002
  1467  1468  1457  1456  2074  2075  2064  2063
  1468  1469  1458  1457  2075  2076  2065  2064
  1469  1470  1459  1458  2076  2077  2066  2065
  1470  1471  1460  1459  2077  2078  2067  2066
  1471  1472  1461  1460  2078  2079  2068  2067
  1472  1473  1462  1461  2079  2080  2069  2068
  1473  1474  1463  1462  2080  2081  2070  2069
  1474  1475  1464  1463  2081  2082  2071  2070
  1475  1476  1465  1464  2082  2083  2072  2071
  1476  1477  1466  1465  2083  2084  2073  2072
  1476  1478  1479  1477  2083  2085  2086  2084
  1478  1480  1481  1479  2085  2087  2088  2086
  1480  1482  1483  1481  2087  2089  2090  2088
  1482  1484  1485  1483  2089  2091  2092  2090
  1475  1486  1478  1476  2082  2093  2085  2083
  1486  1487  1480  1478  2093  2094  2087  2085
  1487  1488  1482  1480  2094  2095  2089  2087
  1488  1489  1484  1482  2095  2096  2091  2089
  1474  1490  1486  1475  2081  2097  2093  2082
  1490  1491  1487  1486  2097  2098  2094  2093
  1491  1492  1488  1487  2098  2099  2095  2094
  1492  1493  1489  1488  2099  2100  2096  2095
  1473  1494  1490  1474  2080  2101  2097  2081
  1494  1495  1491  1490  2101  2102  2098  2097
  1495  1496  1492  1491  2102  2103  2099  2098
  1496  1497  1493  1492  2103  2104  2100  2099
  1472  1498  1494  1473  2079  2105  2101  2080
  1498  1499  1495  1494  2105  2106  2102  2101
  1499  1500  1496  1495  2106  2107  2103  2102
  1500  1501  1497  1496  2107  2108  2104  2103
  1471  1502  1498  1472  2078  2109  2105  2079
  1502  1503  1499  1498  2109  2110  2106  2105
  1503  1504  1500  1499  2110  2111  2107  2106
  1504  1505  1501  1500  2111  2112  2108  2107
  1470  1506  1502  1471  2077  2113  2109  2078
  1506  1507  1503  1502  2113  2114  2110  2109
  1507  1508  1504  1503  2114  2115  2111  2110
  1508  1509  1505  1504  2115  2116  2112  2111
  1469  1510  1506  1470  2076  2117  2113  2077
  1510  1511  1507  1506  2117  2118  2114  2113
  1511  1512  1508  1507  2118  2119  2115  2114
  1512  1513  1509  1508  2119  2120  2116  2115
  1468  1514  1510  1469  2075  2121  2117  2076
  1514  1515  1511  1510  2121  2122  2118  2117
  1515  1516  1512  1511  2122  2123  2119  2118
  1516  1517  1513  1512  2123  2124  2120  2119
  1467  1518  1514  1468  2074  2125  2121  2075
  1518  1519  1515  1514  2125  2126  2122  2121
  1519  1520  1516  1515  2126  2127  2123  2122
  1520  1521  1517  1516  2127  2128  2124  2123
  1369  1522  1518  1467  1976  2129  2125  2074
  1522  1523  1519  1518  2129  2130  2126  2125
  1523  1524  1520  1519  2130  2131  2127  2126
  1524  1525  1521  1520  2131  2132  2128  2127
  1524  1526  1527  1525  2131  2133  2134  2132
  1523  1528  1526  1524  2130  2135  2133  2131
  1522  1529  1528  1523  2129  2136  2135  2130
  1369  1372  1529  1522  1976  1979  2136  2129
  1530  1531  1532  1533  2137  2138  2139  2140
  1531  1534  1535  1532  2138  2141  2142  2139
  1534  1536  1537  1535  2141  2143  2144  2142
  1534  1538  1539  1536  2141  2145  2146  2143
  1538  1540  1541  1539  2145  2147  2148  2146
  1540  1542  1543  1541  2147  2149  2150  2148
  1542  1544  1545  1543  2149  2151  2152  2150
  1544  1546  1547  1545  2151  2153  2154  2152
  1546  1548  1549  1547  2153  2155  2156  2154
  1548  1550  1551  1549  2155  2157  2158  2156
  1531  1552  1538  1534  2138  2159  2145  2141
  1552  1553  1540  1538  2159  2160  2147  2145
  1553  1554  1542  1540  2160  2161  2149  2147
  1554  1555  1544  1542  2161  2162  2151  2149
  1555  1556  1546  1544  2162  2163  2153  2151
  1556  1557  1548  1546  2163  2164  2155  2153
  1557  1558  1550  1548  2164  2165  2157  2155
  1530  1559  1552  1531  2137  2166  2159  2138
  1559  1560  1553  1552  2166  2167  2160  2159
  1560  1561  1554  1553  2167  2168  2161  2160
  1561  1562  1555  1554  2168  2169  2162  2161
  1562  1563  1556  1555  2169  2170  2163  2162
  1563  1564  1557  1556  2170  2171  2164  2163
  1564  1565  1558  1557  2171  2172  2165  2164
  1564  1566  1567  1565  2171  2173  2174  2172
  1566  1568  1569  1567  2173  2175  2176  2174
  1568  1570  1571  1569  2175  2177  2178  2176
  1570  1572  1573  1571  2177  2179  2180  2178
  1572  1574  1575  1573  2179  2181  2182  2180
  1574  1576  1577  1575  2181  2183  2184  2182
  1576  1578  1579  1577  2183  2185  2186  2184
  1578  1580  1581  1579  2185  2187  2188  2186
  1580  1582  1583  1581  2187  2189  2190  2188
  1582  1584  1585  1583  2189  2191  2192  2190
  1584  1586  1587  1585  2191  2193  2194  2192
  1586  1588  1589  1587  2193  2195  2196  2194
  1563  1590  1566  1564  2170  2197  2173  2171
  1590  1591  1568  1566  2197  2198  2175  2173
  1591  1592  1570  1568  2198  2199  2177  2175
  1592  1593  1572  1570  2199  2200  2179  2177
  1593  1594  1574  1572  2200  2201  2181  2179
  1594  1595  1576  1574  2201  2202  2183  2181
  1595  1596  1578  1576  2202  2203  2185  2183
  1596  1597  1580  1578  2203  2204  2187  2185
  1597  1598  1582  1580  2204  2205  2189  2187
  1598  1599  1584  1582  2205  2206  2191  2189
  1599  1600  1586  1584  2206  2207  2193  2191
  1600  1601  1588  1586  2207  2208  2195  2193
  1562  1602  1590  1563  2169  2209  2197  2170
  1602  1603  1591  1590  2209  2210  2198  2197
  1603  1604  1592  1591  2210  2211  2199  2198
  1604  1605  1593  1592  2211  2212  2200  2199
  1605  1606  1594  1593  2212  2213  2201  2200
  1606  1607  1595  1594  2213  2214  2202  2201
  1607  1608  1596  1595  2214  2215  2203  2202
  1608  1609  1597  1596  2215  2216  2204  2203
  1609  1610  1598  1597  2216  2217  2205  2204
  1610  1611  1599  1598  2217  2218  2206  2205
  1611  1612  1600  1599  2218  2219  2207  2206
  1612  1613  1601  1600  2219  2220  2208  2207
  1561  1614  1602  1562  2168  2221  2209  2169
  1614  1615  1603  1602  2221  2222  2210  2209
  1615  1616  1604  1603  2222  2223  2211  2210
  1616  1617  1605  1604  2223  2224  2212  2211
  1617  1618  1606  1605  2224  2225  2213  2212
  1618  1619  1607  1606  2225  2226  2214  2213
  1619  1620  1608  1607  2226  2227  2215  2214
  1620  1621  1609  1608  2227  2228  2216  2215
  1621  1622  1610  1609  2228  2229  2217  2216
  1622  1623  1611  1610  2229  2230  2218  2217
  1623  1624  1612  1611  2230  2231  2219  2218
  1624  1625  1613  1612  2231  2232  2220  2219
  1560  1626  1614  1561  2167  2233  2221  2168
  1626  1627  1615  1614  2233  2234  2222  2221
  1627  1628  1616  1615  2234  2235  2223  2222
  1628  1629  1617  1616  2235  2236  2224  2223
  1629  1630  1618  1617  2236  2237  2225  2224
  1630  1631  1619  1618  2237  2238  2226  2225
  1631  1632  1620  1619  2238  2239  2227  2226
  1632  1633  1621  1620  2239  2240  2228  2227
  1633  1634  1622  1621  2240  2241  2229  2228
  1634  1635  1623  1622  2241  2242  2230  2229
  1635  1636  1624  1623  2242  2243  2231  2230
  1636  1637  1625  1624  2243  2244  2232  2231
  1559  1638  1626  1560  2166  2245  2233  2167
  1638  1639  1627  1626  2245  2246  2234  2233
  1639  1640  1628  1627  2246  2247  2235  2234
  1640  1641  1629  1628  2247  2248  2236  2235
  1641  1642  1630  1629  2248  2249  2237  2236
  1642  1643  1631  1630  2249  2250  2238  2237
  1643  1644  1632  1631  2250  2251  2239  2238
  1644  1645  1633  1632  2251  2252  2240  2239
  1645  1646  1634  1633  2252  2253  2241  2240
  1646  1647  1635  1634  2253  2254  2242  2241
  1647  1648  1636  1635  2254  2255  2243  2242
  1648  1649  1637  1636  2255  2256  2244  2243
  1530  1650  1638  1559  2137  2257  2245  2166
  1650  1651  1639  1638  2257  2258  2246  2245
  1651  1652  1640  1639  2258  2259  2247  2246
  1652  1653  1641  1640  2259  2260  2248  2247
  1653  1654  1642  1641  2260  2261  2249  2248
  1654  1655  1643  1642  2261  2262  2250  2249
  1655  1656  1644  1643  2262  2263  2251  2250
  1656  1657  1645  1644  2263  2264  2252  2251
  1657  1658  1646  1645  2264  2265  2253  2252
  1658  1659  1647  1646  2265  2266  2254  2253
  1659  1660  1648  1647  2266  2267  2255  2254
  1660  1661  1649  1648  2267  2268  2256  2255
  1660  1662  1663  1661  2267  2269  2270  2268
  1662  1664  1665  1663  2269  2271  2272  2270
  1664  1278  1280  1665  2271  1885  1887  2272
  1659  1666  1662  1660  2266  2273  2269  2267
  1666  1667  1664  1662  2273  2274  2271  2269
  1667  1276  1278  1664  2274  1883  1885  2271
  1658  1668  1666  1659  2265  2275  2273  2266
  1668  1669  1667  1666  2275  2276  2274  2273
  1669  1274  1276  1667  2276  1881  1883  2274
  1657  1670  1668  1658  2264  2277  2275  2265
  1670  1671  1669  1668  2277  2278  2276  2275
  1671  1272  1274  1669  2278  1879  1881  2276
  1656  1672  1670  1657  2263  2279  2277  2264
  1672  1673  1671  1670  2279  2280  2278  2277
  1673  1270  1272  1671  2280  1877  1879  2278
  1655  1674  1672  1656  2262  2281  2279  2263
  1674  1675  1673  1672  2281  2282  2280  2279
  1675  1268  1270  1673  2282  1875  1877  2280
  1654  1676  1674  1655  2261  2283  2281  2262
  1676  1677  1675  1674  2283  2284  2282  2281
  1677  1266  1268  1675  2284  1873  1875  2282
  1653  1678  1676  1654  2260  2285  2283  2261
  1678  1679  1677  1676  2285  2286  2284  2283
  1679  1264  1266  1677  2286  1871  1873  2284
  1652  1680  1678  1653  2259  2287  2285  2260
  1680  1681  1679  1678  2287  2288  2286  2285
  1681  1262  1264  1679  2288  1869  1871  2286
  1651  1682  1680  1652  2258  2289  2287  2259
  1682  1683  1681  1680  2289  2290  2288  2287
  1683  1260  1262  1681  2290  1867  1869  2288
  1650  1684  1682  1651  2257  2291  2289  2258
  1684  1685  1683  1682  2291  2292  2290  2289
  1685  1258  1260  1683  2292  1865  1867  2290
  1530  1686  1684  1650  2137  2293  2291  2257
  1686  1687  1685  1684  2293  2294  2292  2291
  1687  1253  1258  1685  2294  1860  1865  2292
  1687  1688  1254  1253  2294  2295  1861  1860
  1686  1689  1688  1687  2293  2296  2295  2294
  1530  1533  1689  1686  2137  2140  2296  2293
  1690  1691  1692  1693  2297  2298  2299  2300
  1691  1694  1695  1692  2298  2301  2302  2299
  1694  1696  1697  1695  2301  2303  2304  2302
  1696  1549  1551  1697  2303  2156  2158  2304
  1698  1699  1691  1690  2305  2306  2298  2297
  1699  1700  1694  1691  2306  2307  2301  2298
  1700  1701  1696  1694  2307  2308  2303  2301
  1701  1547  1549  1696  2308  2154  2156  2303
  1702  1703  1699  1698  2309  2310  2306  2305
  1703  1704  1700  1699  2310  2311  2307  2306
  1704  1705  1701  1700  2311  2312  2308  2307
  1705  1545  1547  1701  2312  2152  2154  2308
  1706  1707  1703  1702  2313  2314  2310  2309
  1707  1708  1704  1703  2314  2315  2311  2310
  1708  1709  1705  1704  2315  2316  2312  2311
  1709  1543  1545  1705  2316  2150  2152  2312
  1710  1711  1707  1706  2317  2318  2314  2313
  1711  1712  1708  1707  2318  2319  2315  2314
  1712  1713  1709  1708  2319  2320  2316  2315
  1713  1541  1543  1709  2320  2148  2150  2316
  1714  1715  1711  1710  2321  2322  2318  2317
  1715  1716  1712  1711  2322  2323  2319  2318
  1716  1717  1713  1712  2323  2324  2320  2319
  1717  1539  1541  1713  2324  2146  2148  2320
  1717  1718  1536  1539  2324  2325  2143  2146
  1718  1719  1537  1536  2325  2326  2144  2143
  1716  1720  1718  1717  2323  2327  2325  2324
  1720  1721  1719  1718  2327  2328  2326  2325
  1715  1722  1720  1716  2322  2329  2327  2323
  1722  1723  1721  1720  2329  2330  2328  2327
  1714  1724  1722  1715  2321  2331  2329  2322
  1724  1725  1723  1722  2331  2332  2330  2329
  1724  1726  1727  1725  2331  2333  2334  2332
  1726  1728  1729  1727  2333  2335  2336  2334
  1728  1525  1527  1729  2335  2132  2134  2336
  1714  1730  1726  1724  2321  2337  2333  2331
  1730  1731  1728  1726  2337  2338  2335  2333
  1731  1521  1525  1728  2338  2128  2132  2335
  1731  1732  1517  1521  2338  2339  2124  2128
  1732  1733  1513  1517  2339  2340  2120  2124
  1733  1734  1509  1513  2340  2341  2116  2120
  1734  1735  1505  1509  2341  2342  2112  2116
  1735  1736  1501  1505  2342  2343  2108  2112
  1736  1737  1497  1501  2343  2344  2104  2108
  1737  1738  1493  1497  2344  2345  2100  2104
  1738  1739  1489  1493  2345  2346  2096  2100
  1739  1740  1484  1489  2346  2347  2091  2096
  1740  1741  1485  1484  2347  2348  2092  2091
  1730  1742  1732  1731  2337  2349  2339  2338
  1742  1743  1733  1732  2349  2350  2340  2339
  1743  1744  1734  1733  2350  2351  2341  2340
  1744  1745  1735  1734  2351  2352  2342  2341
  1745  1746  1736  1735  2352  2353  2343  2342
  1746  1747  1737  1736  2353  2354  2344  2343
  1747  1748  1738  1737  2354  2355  2345  2344
  1748  1749  1739  1738  2355  2356  2346  2345
  1749  1750  1740  1739  2356  2357  2347  2346
  1750  1751  1741  1740  2357  2358  2348  2347
  1714  1752  1742  1730  2321  2359  2349  2337
  1752  1753  1743  1742  2359  2360  2350  2349
  1753  1754  1744  1743  2360  2361  2351  2350
  1754  1755  1745  1744  2361  2362  2352  2351
  1755  1756  1746  1745  2362  2363  2353  2352
  1756  1757  1747  1746  2363  2364  2354  2353
  1757  1758  1748  1747  2364  2365  2355  2354
  1758  1759  1749  1748  2365  2366  2356  2355
  1759  1760  1750  1749  2366  2367  2357  2356
  1760  1761  1751  1750  2367  2368  2358  2357
  1760  1762  1763  1761  2367  2369  2370  2368
  1762  1764  1765  1763  2369  2371  2372  2370
  1764  1766  1767  1765  2371  2373  2374  2372
  1766  1768  1769  1767  2373  2375  2376  2374
  1768  1770  1771  1769  2375  2377  2378  2376
  1770  1772  1773  1771  2377  2379  2380  2378
  1759  1774  1762  1760  2366  2381  2369  2367
  1774  1775  1764  1762  2381  2382  2371  2369
  1775  1776  1766  1764  2382  2383  2373  2371
  1776  1777  1768  1766  2383  2384  2375  2373
  1777  1778  1770  1768  2384  2385  2377  2375
  1778  1779  1772  1770  2385  2386  2379  2377
  1758  1780  1774  1759  2365  2387  2381  2366
  1780  1781  1775  1774  2387  2388  2382  2381
  1781  1782  1776  1775  2388  2389  2383  2382
  1782  1783  1777  1776  2389  2390  2384  2383
  1783  1784  1778  1777  2390  2391  2385  2384
  1784  1785  1779  1778  2391  2392  2386  2385
  1757  1786  1780  1758  2364  2393  2387  2365
  1786  1787  1781  1780  2393  2394  2388  2387
  1787  1788  1782  1781  2394  2395  2389  2388
  1788  1789  1783  1782  2395  2396  2390  2389
  1789  1790  1784  1783  2396  2397  2391  2390
  1790  1791  1785  1784  2397  2398  2392  2391
  1756  1792  1786  1757  2363  2399  2393  2364
  1792  1793  1787  1786  2399  2400  2394  2393
  1793  1794  1788  1787  2400  2401  2395  2394
  1794  1795  1789  1788  2401  2402  2396  2395
  1795  1796  1790  1789  2402  2403  2397  2396
  1796  1797  1791  1790  2403  2404  2398  2397
  1755  1798  1792  1756  2362  2405  2399  2363
  1798  1799  1793  1792  2405  2406  2400  2399
  1799  1800  1794  1793  2406  2407  2401  2400
  1800  1801  1795  1794  2407  2408  2402  2401
  1801  1802  1796  1795  2408  2409  2403  2402
  1802  1803  1797  1796  2409  2410  2404  2403
  1754  1804  1798  1755  2361  2411  2405  2362
  1804  1805  1799  1798  2411  2412  2406  2405
  1805  1806  1800  1799  2412  2413  2407  2406
  1806  1807  1801  1800  2413  2414  2408  2407
  1807  1808  1802  1801  2414  2415  2409  2408
  1808  1809  1803  1802  2415  2416  2410  2409
  1753  1810  1804  1754  2360  2417  2411  2361
  1810  1811  1805  1804  2417  2418  2412  2411
  1811  1812  1806  1805  2418  2419  2413  2412
  1812  1813  1807  1806  2419  2420  2414  2413
  1813  1814  1808  1807  2420  2421  2415  2414
  1814  1815  1809  1808  2421  2422  2416  2415
  1752  1816  1810  1753  2359  2423  2417  2360
  1816  1817  1811  1810  2423  2424  2418  2417
  1817  1818  1812  1811  2424  2425  2419  2418
  1818  1819  1813  1812  2425  2426  2420  2419
  1819  1820  1814  1813  2426  2427  2421  2420
  1820  1821  1815  1814  2427  2428  2422  2421
  1714  1710  1816  1752  2321  2317  2423  2359
  1710  1706  1817  1816  2317  2313  2424  2423
  1706  1702  1818  1817  2313  2309  2425  2424
  1702  1698  1819  1818  2309  2305  2426  2425
  1698  1690  1820  1819  2305  2297  2427  2426
  1690  1693  1821  1820  2297  2300  2428  2427
  1822  1823  1824  1825  2429  2430  2431  2432
  1823  1826  1827  1824  2430  2433  2434  2431
  1826  1828  1829  1827  2433  2435  2436  2434
  1830  1831  1823  1822  2437  2438  2430  2429
  1831  1832  1826  1823  2438  2439  2433  2430
  1832  1833  1828  1826  2439  2440  2435  2433
  1834  1835  1831  1830  2441  2442  2438  2437
  1835  1836  1832  1831  2442  2443  2439  2438
  1836  1837  1833  1832  2443  2444  2440  2439
  1838  1839  1835  1834  2445  2446  2442  2441
  1839  1840  1836  1835  2446  2447  2443  2442
  1840  1841  1837  1836  2447  2448  2444  2443
  1842  1843  1839  1838  2449  2450  2446  2445
  1843  1844  1840  1839  2450  2451  2447  2446
  1844  1845  1841  1840  2451  2452  2448  2447
  1844  1846  1847  1845  2451  2453  2454  2452
  1846  1848  1849  1847  2453  2455  2456  2454
  1843  1850  1846  1844  2450  2457  2453  2451
  1850  1851  1848  1846  2457  2458  2455  2453
  1842  1852  1850  1843  2449  2459  2457  2450
  1852  1853  1851  1850  2459  2460  2458  2457
  1852  1854  1855  1853  2459  2461  2462  2460
  1854  1856  1857  1855  2461  2463  2464  2462
  1856  1858  1859  1857  2463  2465  2466  2464
  1858  1860  1861  1859  2465  2467  2468  2466
  1842  1862  1854  1852  2449  2469  2461  2459
  1862  1863  1856  1854  2469  2470  2463  2461
  1863  1864  1858  1856  2470  2471  2465  2463
  1864  1865  1860  1858  2471  2472  2467  2465
  1864  1866  1867  1865  2471  2473  2474  2472
  1866  1868  1869  1867  2473  2475  2476  2474
  1868  1870  1871  1869  2475  2477  2478  2476
  1870  1872  1873  1871  2477  2479  2480  2478
  1872  1874  1875  1873  2479  2481  2482  2480
  1874  1876  1877  1875  2481  2483  2484  2482
  1876  1878  1879  1877  2483  2485  2486  2484
  1878  1880  1881  1879  2485  2487  2488  2486
  1880  1882  1883  1881  2487  2489  2490  2488
  1882  1884  1885  1883  2489  2491  2492  2490
  1884  1886  1887  1885  2491  2493  2494  2492
  1863  1888  1866  1864  2470  2495  2473  2471
  1888  1889  1868  1866  2495  2496  2475  2473
  1889  1890  1870  1868  2496  2497  2477  2475
  1890  1891  1872  1870  2497  2498  2479  2477
  1891  1892  1874  1872  2498  2499  2481  2479
  1892  1893  1876  1874  2499  2500  2483  2481
  1893  1894  1878  1876  2500  2501  2485  2483
  1894  1895  1880  1878  2501  2502  2487  2485
  1895  1896  1882  1880  2502  2503  2489  2487
  1896  1897  1884  1882  2503  2504  2491  2489
  1897  1898  1886  1884  2504  2505  2493  2491
  1862  1899  1888  1863  2469  2506  2495  2470
  1899  1900  1889  1888  2506  2507  2496  2495
  1900  1901  1890  1889  2507  2508  2497  2496
  1901  1902  1891  1890  2508  2509  2498  2497
  1902  1903  1892  1891  2509  2510  2499  2498
  1903  1904  1893  1892  2510  2511  2500  2499
  1904  1905  1894  1893  2511  2512  2501  2500
  1905  1906  1895  1894  2512  2513  2502  2501
  1906  1907  1896  1895  2513  2514  2503  2502
  1907  1908  1897  1896  2514  2515  2504  2503
  1908  1909  1898  1897  2515  2516  2505  2504
  1842  1910  1899  1862  2449  2517  2506  2469
  1910  1911  1900  1899  2517  2518  2507  2506
  1911  1912  1901  1900  2518  2519  2508  2507
  1912  1913  1902  1901  2519  2520  2509  2508
  1913  1914  1903  1902  2520  2521  2510  2509
  1914  1915  1904  1903  2521  2522  2511  2510
  1915  1916  1905  1904  2522  2523  2512  2511
  1916  1917  1906  1905  2523  2524  2513  2512
  1917  1918  1907  1906  2524  2525  2514  2513
  1918  1919  1908  1907  2525  2526  2515  2514
  1919  1920  1909  1908  2526  2527  2516  2515
  1919  1921  1922  1920  2526  2528  2529  2527
  1921  1923  1924  1922  2528  2530  2531  2529
  1923  1925  1926  1924  2530  2532  2533  2531
  1925  1927  1928  1926  2532  2534  2535  2533
  1927  1929  1930  1928  2534  2536  2537  2535
  1918  1931  1921  1919  2525  2538  2528  2526
  1931  1932  1923  1921  2538  2539  2530  2528
  1932  1933  1925  1923  2539  2540  2532  2530
  1933  1934  1927  1925  2540  2541  2534  2532
  1934  1935  1929  1927  2541  2542  2536  2534
  1917  1936  1931  1918  2524  2543  2538  2525
  1936  1937  1932  1931  2543  2544  2539  2538
  1937  1938  1933  1932  2544  2545  2540  2539
  1938  1939  1934  1933  2545  2546  2541  2540
  1939  1940  1935  1934  2546  2547  2542  2541
  1916  1941  1936  1917  2523  2548  2543  2524
  1941  1942  1937  1936  2548  2549  2544  2543
  1942  1943  1938  1937  2549  2550  2545  2544
  1943  1944  1939  1938  2550  2551  2546  2545
  1944  1945  1940  1939  2551  2552  2547  2546
  1915  1946  1941  1916  2522  2553  2548  2523
  1946  1947  1942  1941  2553  2554  2549  2548
  1947  1948  1943  1942  2554  2555  2550  2549
  1948  1949  1944  1943  2555  2556  2551  2550
  1949  1950  1945  1944  2556  2557  2552  2551
  1914  1951  1946  1915  2521  2558  2553  2522
  1951  1952  1947  1946  2558  2559  2554  2553
  1952  1953  1948  1947  2559  2560  2555  2554
  1953  1954  1949  1948  2560  2561  2556  2555
  1954  1955  1950  1949  2561  2562  2557  2556
  1913  1956  1951  1914  2520  2563  2558  2521
  1956  1957  1952  1951  2563  2564  2559  2558
  1957  1958  1953  1952  2564  2565  2560  2559
  1958  1959  1954  1953  2565  2566  2561  2560
  1959  1960  1955  1954  2566  2567  2562  2561
  1912  1961  1956  1913  2519  2568  2563  2520
  1961  1962  1957  1956  2568  2569  2564  2563
  1962  1963  1958  1957  2569  2570  2565  2564
  1963  1964  1959  1958  2570  2571  2566  2565
  1964  1965  1960  1959  2571  2572  2567  2566
  1911  1966  1961  1912  2518  2573  2568  2519
  1966  1967  1962  1961  2573  2574  2569  2568
  1967  1968  1963  1962  2574  2575  2570  2569
  1968  1969  1964  1963  2575  2576  2571  2570
  1969  1970  1965  1964  2576  2577  2572  2571
  1910  1971  1966  1911  2517  2578  2573  2518
  1971  1972  1967  1966  2578  2579  2574  2573
  1972  1973  1968  1967  2579  2580  2575  2574
  1973  1974  1969  1968  2580  2581  2576  2575
  1974  1975  1970  1969  2581  2582  2577  2576
  1842  1838  1971  1910  2449  2445  2578  2517
  1838  1834  1972  1971  2445  2441  2579  2578
  1834  1830  1973  1972  2441  2437  2580  2579
  1830  1822  1974  1973  2437  2429  2581  2580
  1822  1825  1975  1974  2429  2432  2582  2581
  1976  1977  1978  1979  2583  2584  2585  2586
  1977  1980  1981  1978  2584  2587  2588  2585
  1980  1982  1983  1981  2587  2589  2590  2588
  1982  1847  1849  1983  2589  2454  2456  2590
  1982  1984  1845  1847  2589  2591  2452  2454
  1984  1985  1841  1845  2591  2592  2448  2452
  1985  1986  1837  1841  2592  2593  2444  2448
  1986  1987  1833  1837  2593  2594  2440  2444
  1987  1988  1828  1833  2594  2595  2435  2440
  1988  1989  1829  1828  2595  2596  2436  2435
  1980  1990  1984  1982  2587  2597  2591  2589
  1990  1991  1985  1984  2597  2598  2592  2591
  1991  1992  1986  1985  2598  2599  2593  2592
  1992  1993  1987  1986  2599  2600  2594  2593
  1993  1994  1988  1987  2600  2601  2595  2594
  1994  1995  1989  1988  2601  2602  2596  2595
  1977  1996  1990  1980  2584  2603  2597  2587
  1996  1997  1991  1990  2603  2604  2598  2597
  1997  1998  1992  1991  2604  2605  2599  2598
  1998  1999  1993  1992  2605  2606  2600  2599
  1999  2000  1994  1993  2606  2607  2601  2600
  2000  2001  1995  1994  2607  2608  2602  2601
  1976  2002  1996  1977  2583  2609  2603  2584
  2002  2003  1997  1996  2609  2610  2604  2603
  2003  2004  1998  1997  2610  2611  2605  2604
  2004  2005  1999  1998  2611  2612  2606  2605
  2005  2006  2000  1999  2612  2613  2607  2606
  2006  2007  2001  2000  2613  2614  2608  2607
  2006  2008  2009  2007  2613  2615  2616  2614
  2008  2010  2011  2009  2615  2617  2618  2616
  2010  2012  2013  2011  2617  2619  2620  2618
  2012  2014  2015  2013  2619  2621  2622  2620
  2014  2016  2017  2015  2621  2623  2624  2622
  2016  2018  2019  2017  2623  2625  2626  2624
  2018  2020  2021  2019  2625  2627  2628  2626
  2020  2022  2023  2021  2627  2629  2630  2628
  2022  2024  2025  2023  2629  2631  2632  2630
  2024  2026  2027  2025  2631  2633  2634  2632
  2026  2028  2029  2027  2633  2635  2636  2634
  2005  2030  2008  2006  2612  2637  2615  2613
  2030  2031  2010  2008  2637  2638  2617  2615
  2031  2032  2012  2010  2638  2639  2619  2617
  2032  2033  2014  2012  2639  2640  2621  2619
  2033  2034  2016  2014  2640  2641  2623  2621
  2034  2035  2018  2016  2641  2642  2625  2623
  2035  2036  2020  2018  2642  2643  2627  2625
  2036  2037  2022  2020  2643  2644  2629  2627
  2037  2038  2024  2022  2644  2645  2631  2629
  2038  2039  2026  2024  2645  2646  2633  2631
  2039  2040  2028  2026  2646  2647  2635  2633
  2004  2041  2030  2005  2611  2648  2637  2612
  2041  2042  2031  2030  2648  2649  2638  2637
  2042  2043  2032  2031  2649  2650  2639  2638
  2043  2044  2033  2032  2650  2651  2640  2639
  2044  2045  2034  2033  2651  2652  2641  2640
  2045  2046  2035  2034  2652  2653  2642  2641
  2046  2047  2036  2035  2653  2654  2643  2642
  2047  2048  2037  2036  2654  2655  2644  2643
  2048  2049  2038  2037  2655  2656  2645  2644
  2049  2050  2039  2038  2656  2657  2646  2645
  2050  2051  2040  2039  2657  2658  2647  2646
  2003  2052  2041  2004  2610  2659  2648  2611
  2052  2053  2042  2041  2659  2660  2649  2648
  2053  2054  2043  2042  2660  2661  2650  2649
  2054  2055  2044  2043  2661  2662  2651  2650
  2055  2056  2045  2044  2662  2663  2652  2651
  2056  2057  2046  2045  2663  2664  2653  2652
  2057  2058  2047  2046  2664  2665  2654  2653
  2058  2059  2048  2047  2665  2666  2655  2654
  2059  2060  2049  2048  2666  2667  2656  2655
  2060  2061  2050  2049  2667  2668  2657  2656
  2061  2062  2051  2050  2668  2669  2658  2657
  2002  2063  2052  2003  2609  2670  2659  2610
  2063  2064  2053  2052  2670  2671  2660  2659
  2064  2065  2054  2053  2671  2672  2661  2660
  2065  2066  2055  2054  2672  2673  2662  2661
  2066  2067  2056  2055  2673  2674  2663  2662
  2067  2068  2057  2056  2674  2675  2664  2663
  2068  2069  2058  2057  2675  2676  2665  2664
  2069  2070  2059  2058  2676  2677  2666  2665
  2070  2071  2060  2059  2677  2678  2667  2666
  2071  2072  2061  2060  2678  2679  2668  2667
  2072  2073  2062  2061  2679  2680  2669  2668
  1976  2074  2063  2002  2583  2681  2670  2609
  2074  2075  2064  2063  2681  2682  2671  2670
  2075  2076  2065  2064  2682  2683  2672  2671
  2076  2077  2066  2065  2683  2684  2673  2672
  2077  2078  2067  2066  2684  2685  2674  2673
  2078  2079  2068  2067  2685  2686  2675  2674
  2079  2080  2069  2068  2686  2687  2676  2675
  2080  2081  2070  2069  2687  2688  2677  2676
  2081  2082  2071  2070  2688  2689  2678  2677
  2082  2083  2072  2071  2689  2690  2679  2678
  2083  2084  2073  2072  2690  2691  2680  2679
  2083  2085  2086  2084  2690  2692  2693  2691
  2085  2087  2088  2086  2692  2694  2695  2693
  2087  2089  2090  2088  2694  2696  2697  2695
  2089  2091  2092  2090  2696  2698  2699  2697
  2082  2093  2085  2083  2689  2700  2692  2690
  2093  2094  2087  2085  2700  2701  2694  2692
  2094  2095  2089  2087  2701  2702  2696  2694
  2095  2096  2091  2089  2702  2703  2698  2696
  2081  2097  2093  2082  2688  2704  2700  2689
  2097  2098  2094  2093  2704  2705  2701  2700
  2098  2099  2095  2094  2705  2706  2702  2701
  2099  2100  2096  2095  2706  2707  2703  2702
  2080  2101  2097  2081  2687  2708  2704  2688
  2101  2102  2098  2097  2708  2709  2705  2704
  2102  2103  2099  2098  2709  2710  2706  2705
  2103  2104  2100  2099  2710  2711  2707  2706
  2079  2105  2101  2080  2686  2712  2708  2687
  2105  2106  2102  2101  2712  2713  2709  2708
  2106  2107  2103  2102  2713  2714  2710  2709
  2107  2108  2104  2103  2714  2715  2711  2710
  2078  2109  2105  2079  2685  2716  2712  2686
  2109  2110  2106  2105  2716  2717  2713  2712
  2110  2111  2107  2106  2717  2718  2714  2713
  2111  2112  2108  2107  2718  2719  2715  2714
  2077  2113  2109  2078  2684  2720  2716  2685
  2113  2114  2110  2109  2720  2721  2717  2716
  2114  2115  2111  2110  2721  2722  2718  2717
  2115  2116  2112  2111  2722  2723  2719  2718
  2076  2117  2113  2077  2683  2724  2720  2684
  2117  2118  2114  2113  2724  2725  2721  2720
  2118  2119  2115  2114  2725  2726  2722  2721
  2119  2120  2116  2115  2726  2727  2723  2722
  2075  2121  2117  2076  2682  2728  2724  2683
  2121  2122  2118  2117  2728  2729  2725  2724
  2122  2123  2119  2118  2729  2730  2726  2725
  2123  2124  2120  2119  2730  2731  2727  2726
  2074  2125  2121  2075  2681  2732  2728  2682
  2125  2126  2122  2121  2732  2733  2729  2728
  2126  2127  2123  2122  2733  2734  2730  2729
  2127  2128  2124  2123  2734  2735  2731  2730
  1976  2129  2125  2074  2583  2736  2732  2681
  2129  2130  2126  2125  2736  2737  2733  2732
  2130  2131  2127  2126  2737  2738  2734  2733
  2131  2132  2128  2127  2738  2739  2735  2734
  2131  2133  2134  2132  2738  2740  2741  2739
  2130  2135  2133  2131  2737  2742  2740  2738
  2129  2136  2135  2130  2736  2743  2742  2737
  1976  1979  2136  2129  2583  2586  2743  2736
  2137  2138  2139  2140  2744  2745  2746  2747
  2138  2141  2142  2139  2745  2748  2749  2746
  2141  2143  2144  2142  2748  2750  2751  2749
  2141  2145  2146  2143  2748  2752  2753  2750
  2145  2147  2148  2146  2752  2754  2755  2753
  2147  2149  2150  2148  2754  2756  2757  2755
  2149  2151  2152  2150  2756  2758  2759  2757
  2151  2153  2154  2152  2758  2760  2761  2759
  2153  2155  2156  2154  2760  2762  2763  2761
  2155  2157  2158  2156  2762  2764  2765  2763
  2138  2159  2145  2141  2745  2766  2752  2748
  2159  2160  2147  2145  2766  2767  2754  2752
  2160  2161  2149  2147  2767  2768  2756  2754
  2161  2162  2151  2149  2768  2769  2758  2756
  2162  2163  2153  2151  2769  2770  2760  2758
  2163  2164  2155  2153  2770  2771  2762  2760
  2164  2165  2157  2155  2771  2772  2764  2762
  2137  2166  2159  2138  2744  2773  2766  2745
  2166  2167  2160  2159  2773  2774  2767  2766
  2167  2168  2161  2160  2774  2775  2768  2767
  2168  2169  2162  2161  2775  2776  2769  2768
  2169  2170  2163  2162  2776  2777  2770  2769
  2170  2171  2164  2163  2777  2778  2771  2770
  2171  2172  2165  2164  2778  2779  2772  2771
  2171  2173  2174  2172  2778  2780  2781  2779
  2173  2175  2176  2174  2780  2782  2783  2781
  2175  2177  2178  2176  2782  2784  2785  2783
  2177  2179  2180  2178  2784  2786  2787  2785
  2179  2181  2182  2180  2786  2788  2789  2787
  2181  2183  2184  2182  2788  2790  2791  2789
  2183  2185  2186  2184  2790  2792  2793  2791
  2185  2187  2188  2186  2792  2794  2795  2793
  2187  2189  2190  2188  2794  2796  2797  2795
  2189  2191  2192  2190  2796  2798  2799  2797
  2191  2193  2194  2192  2798  2800  2801  2799
  2193  2195  2196  2194  2800  2802  2803  2801
  2170  2197  2173  2171  2777  2804  2780  2778
  2197  2198  2175  2173  2804  2805  2782  2780
  2198  2199  2177  2175  2805  2806  2784  2782
  2199  2200  2179  2177  2806  2807  2786  2784
  2200  2201  2181  2179  2807  2808  2788  2786
  2201  2202  2183  2181  2808  2809  2790  2788
  2202  2203  2185  2183  2809  2810  2792  2790
  2203  2204  2187  2185  2810  2811  2794  2792
  2204  2205  2189  2187  2811  2812  2796  2794
  2205  2206  2191  2189  2812  2813  2798  2796
  2206  2207  2193  2191  2813  2814  2800  2798
  2207  2208  2195  2193  2814  2815  2802  2800
  2169  2209  2197  2170  2776  2816  2804  2777
  2209  2210  2198  2197  2816  2817  2805  2804
  2210  2211  2199  2198  2817  2818  2806  2805
  2211  2212  2200  2199  2818  2819  2807  2806
  2212  2213  2201  2200  2819  2820  2808  2807
  2213  2214  2202  2201  2820  2821  2809  2808
  2214  2215  2203  2202  2821  2822  2810  2809
  2215  2216  2204  2203  2822  2823  2811  2810
  2216  2217  2205  2204  2823  2824  2812  2811
  2217  2218  2206  2205  2824  2825  2813  2812
  2218  2219  2207  2206  2825  2826  2814  2813
  2219  2220  2208  2207  2826  2827  2815  2814
  2168  2221  2209  2169  2775  2828  2816  2776
  2221  2222  2210  2209  2828  2829  2817  2816
  2222  2223  2211  2210  2829  2830  2818  2817
  2223  2224  2212  2211  2830  2831  2819  2818
  2224  2225  2213  2212  2831  2832  2820  2819
  2225  2226  2214  2213  2832  2833  2821  2820
  2226  2227  2215  2214  2833  2834  2822  2821
  2227  2228  2216  2215  2834  2835  2823  2822
  2228  2229  2217  2216  2835  2836  2824  2823
  2229  2230  2218  2217  2836  2837  2825  2824
  2230  2231  2219  2218  2837  2838  2826  2825
  2231  2232  2220  2219  2838  2839  2827  2826
  2167  2233  2221  2168  2774  2840  2828  2775
  2233  2234  2222  2221  2840  2841  2829  2828
  2234  2235  2223  2222  2841  2842  2830  2829
  2235  2236  2224  2223  2842  2843  2831  2830
  2236  2237  2225  2224  2843  2844  2832  2831
  2237  2238  2226  2225  2844  2845  2833  2832
  2238  2239  2227  2226  2845  2846  2834  2833
  2239  2240  2228  2227  2846  2847  2835  2834
  2240  2241  2229  2228  2847  2848  2836  2835
  2241  2242  2230  2229  2848  2849  2837  2836
  2242  2243  2231  2230  2849  2850  2838  2837
  2243  2244  2232  2231  2850  2851  2839  2838
  2166  2245  2233  2167  2773  2852  2840  2774
  2245  2246  2234  2233  2852  2853  2841  2840
  2246  2247  2235  2234  2853  2854  2842  2841
  2247  2248  2236  2235  2854  2855  2843  2842
  2248  2249  2237  2236  2855  2856  2844  2843
  2249  2250  2238  2237  2856  2857  2845  2844
  2250  2251  2239  2238  2857  2858  2846  2845
  2251  2252  2240  2239  2858  2859  2847  2846
  2252  2253  2241  2240  2859  2860  2848  2847
  2253  2254  2242  2241  2860  2861  2849  2848
  2254  2255  2243  2242  2861  2862  2850  2849
  2255  2256  2244  2243  2862  2863  2851  2850
  2137  2257  2245  2166  2744  2864  2852  2773
  2257  2258  2246  2245  2864  2865  2853  2852
  2258  2259  2247  2246  2865  2866  2854  2853
  2259  2260  2248  2247  2866  2867  2855  2854
  2260  2261  2249  2248  2867  2868  2856  2855
  2261  2262  2250  2249  2868  2869  2857  2856
  2262  2263  2251  2250  2869  2870  2858  2857
  2263  2264  2252  2251  2870  2871  2859  2858
  2264  2265  2253  2252  2871  2872  2860  2859
  2265  2266  2254  2253  2872  2873  2861  2860
  2266  2267  2255  2254  2873  2874  2862  2861
  2267  2268  2256  2255  2874  2875  2863  2862
  2267  2269  2270  2268  2874  2876  2877  2875
  2269  2271  2272  2270  2876  2878  2879  2877
  2271  1885  1887  2272  2878  2492  2494  2879
  2266  2273  2269  2267  2873  2880  2876  2874
  2273  2274  2271  2269  2880  2881  2878  2876
  2274  1883  1885  2271  2881  2490  2492  2878
  2265  2275  2273  2266  2872  2882  2880  2873
  2275  2276  2274  2273  2882  2883  2881  2880
  2276  1881  1883  2274  2883  2488  2490  2881
  2264  2277  2275  2265  2871  2884  2882  2872
  2277  2278  2276  2275  2884  2885  2883  2882
  2278  1879  1881  2276  2885  2486  2488  2883
  2263  2279  2277  2264  2870  2886  2884  2871
  2279  2280  2278  2277  2886  2887  2885  2884
  2280  1877  1879  2278  2887  2484  2486  2885
  2262  2281  2279  2263  2869  2888  2886  2870
  2281  2282  2280  2279  2888  2889  2887  2886
  2282  1875  1877  2280  2889  2482  2484  2887
  2261  2283  2281  2262  2868  2890  2888  2869
  2283  2284  2282  2281  2890  2891  2889  2888
  2284  1873  1875  2282  2891  2480  2482  2889
  2260  2285  2283  2261  2867  2892  2890  2868
  2285  2286  2284  2283  2892  2893  2891  2890
  2286  1871  1873  2284  2893  2478  2480  2891
  2259  2287  2285  2260  2866  2894  2892  2867
  2287  2288  2286  2285  2894  2895  2893  2892
  2288  1869  1871  2286  2895  2476  2478  2893
  2258  2289  2287  2259  2865  2896  2894  2866
  2289  2290  2288  2287  2896  2897  2895  2894
  2290  1867  1869  2288  2897  2474  2476  2895
  2257  2291  2289  2258  2864  2898  2896  2865
  2291  2292  2290  2289  2898  2899  2897  2896
  2292  1865  1867  2290  2899  2472  2474  2897
  2137  2293  2291  2257  2744  2900  2898  2864
  2293  2294  2292  2291  2900  2901  2899  2898
  2294  1860  1865  2292  2901  2467  2472  2899
  2294  2295  1861  1860  2901  2902  2468  2467
  2293  2296  2295  2294  2900  2903  2902  2901
  2137  2140  2296  2293  2744  2747  2903  2900
  2297  2298  2299  2300  2904  2905  2906  2907
  2298  2301  2302  2299  2905  2908  2909  2906
  2301  2303  2304  2302  2908  2910  2911  2909
  2303  2156  2158  2304  2910  2763  2765  2911
  2305  2306  2298  2297  2912  2913  2905  2904
  2306  2307  2301  2298  2913  2914  2908  2905
  2307  2308  2303  2301  2914  2915  2910  2908
  2308  2154  2156  2303  2915  2761  2763  2910
  2309  2310  2306  2305  2916  2917  2913  2912
  2310  2311  2307  2306  2917  2918  2914  2913
  2311  2312  2308  2307  2918  2919  2915  2914
  2312  2152  2154  2308  2919  2759  2761  2915
  2313  2314  2310  2309  2920  2921  2917  2916
  2314  2315  2311  2310  2921  2922  2918  2917
  2315  2316  2312  2311  2922  2923  2919  2918
  2316  2150  2152  2312  2923  2757  2759  2919
  2317  2318  2314  2313  2924  2925  2921  2920
  2318  2319  2315  2314  2925  2926  2922  2921
  2319  2320  2316  2315  2926  2927  2923  2922
  2320  2148  2150  2316  2927  2755  2757  2923
  2321  2322  2318  2317  2928  2929  2925  2924
  2322  2323  2319  2318  2929  2930  2926  2925
  2323  2324  2320  2319  2930  2931  2927  2926
  2324  2146  2148  2320  2931  2753  2755  2927
  2324  2325  2143  2146  2931  2932  2750  2753
  2325  2326  2144  2143  2932  2933  2751  2750
  2323  2327  2325  2324  2930  2934  2932  2931
  2327  2328  2326  2325  2934  2935  2933  2932
  2322  2329  2327  2323  2929  2936  2934  2930
  2329  2330  2328  2327  2936  2937  2935  2934
  2321  2331  2329  2322  2928  2938  2936  2929
  2331  2332  2330  2329  2938  2939  2937  2936
  2331  2333  2334  2332  2938  2940  2941  2939
  2333  2335  2336  2334  2940  2942  2943  2941
  2335  2132  2134  2336  2942  2739  2741  2943
  2321  2337  2333  2331  2928  2944  2940  2938
  2337  2338  2335  2333  2944  2945  2942  2940
  2338  2128  2132  2335  2945  2735  2739  2942
  2338  2339  2124  2128  2945  2946  2731  2735
  2339  2340  2120  2124  2946  2947  2727  2731
  2340  2341  2116  2120  2947  2948  2723  2727
  2341  2342  2112  2116  2948  2949  2719  2723
  2342  2343  2108  2112  2949  2950  2715  2719
  2343  2344  2104  2108  2950  2951  2711  2715
  2344  2345  2100  2104  2951  2952  2707  2711
  2345  2346  2096  2100  2952  2953  2703  2707
  2346  2347  2091  2096  2953  2954  2698  2703
  2347  2348  2092  2091  2954  2955  2699  2698
  2337  2349  2339  2338  2944  2956  2946  2945
  2349  2350  2340  2339  2956  2957  2947  2946
  2350  2351  2341  2340  2957  2958  2948  2947
  2351  2352  2342  2341  2958  2959  2949  2948
  2352  2353  2343  2342  2959  2960  2950  2949
  2353  2354  2344  2343  2960  2961  2951  2950
  2354  2355  2345  2344  2961  2962  2952  2951
  2355  2356  2346  2345  2962  2963  2953  2952
  2356  2357  2347  2346  2963  2964  2954  2953
  2357  2358  2348  2347  2964  2965  2955  2954
  2321  2359  2349  2337  2928  2966  2956  2944
  2359  2360  2350  2349  2966  2967  2957  2956
  2360  2361  2351  2350  2967  2968  2958  2957
  2361  2362  2352  2351  2968  2969  2959  2958
  2362  2363  2353  2352  2969  2970  2960  2959
  2363  2364  2354  2353  2970  2971  2961  2960
  2364  2365  2355  2354  2971  2972  2962  2961
  2365  2366  2356  2355  2972  2973  2963  2962
  2366  2367  2357  2356  2973  2974  2964  2963
  2367  2368  2358  2357  2974  2975  2965  2964
  2367  2369  2370  2368  2974  2976  2977  2975
  2369  2371  2372  2370  2976  2978  2979  2977
  2371  2373  2374  2372  2978  2980  2981  2979
  2373  2375  2376  2374  2980  2982  2983  2981
  2375  2377  2378  2376  2982  2984  2985  2983
  2377  2379  2380  2378  2984  2986  2987  2985
  2366  2381  2369  2367  2973  2988  2976  2974
  2381  2382  2371  2369  2988  2989  2978  2976
  2382  2383  2373  2371  2989  2990  2980  2978
  2383  2384  2375  2373  2990  2991  2982  2980
  2384  2385  2377  2375  2991  2992  2984  2982
  2385  2386  2379  2377  2992  2993  2986  2984
  2365  2387  2381  2366  2972  2994  2988  2973
  2387  2388  2382  2381  2994  2995  2989  2988
  2388  2389  2383  2382  2995  2996  2990  2989
  2389  2390  2384  2383  2996  2997  2991  2990
  2390  2391  2385  2384  2997  2998  2992  2991
  2391  2392  2386  2385  2998  2999  2993  2992
  2364  2393  2387  2365  2971  3000  2994  2972
  2393  2394  2388  2387  3000  3001  2995  2994
  2394  2395  2389  2388  3001  3002  2996  2995
  2395  2396  2390  2389  3002  3003  2997  2996
  2396  2397  2391  2390  3003  3004  2998  2997
  2397  2398  2392  2391  3004  3005  2999  2998
  2363  2399  2393  2364  2970  3006  3000  2971
  2399  2400  2394  2393  3006  3007  3001  3000
  2400  2401  2395  2394  3007  3008  3002  3001
  2401  2402  2396  2395  3008  3009  3003  3002
  2402  2403  2397  2396  3009  3010  3004  3003
  2403  2404  2398  2397  3010  3011  3005  3004
  2362  2405  2399  2363  2969  3012  3006  2970
  2405  2406  2400  2399  3012  3013  3007  3006
  2406  2407  2401  2400  3013  3014  3008  3007
  2407  2408  2402  2401  3014  3015  3009  3008
  2408  2409  2403  2402  3015  3016  3010  3009
  2409  2410  2404  2403  3016  3017  3011  3010
  2361  2411  2405  2362  2968  3018  3012  2969
  2411  2412  2406  2405  3018  3019  3013  3012
  2412  2413  2407  2406  3019  3020  3014  3013
  2413  2414  2408  2407  3020  3021  3015  3014
  2414  2415  2409  2408  3021  3022  3016  3015
  2415  2416  2410  2409  3022  3023  3017  3016
  2360  2417  2411  2361  2967  3024  3018  2968
  2417  2418  2412  2411  3024  3025  3019  3018
  2418  2419  2413  2412  3025  3026  3020  3019
  2419  2420  2414  2413  3026  3027  3021  3020
  2420  2421  2415  2414  3027  3028  3022  3021
  2421  2422  2416  2415  3028  3029  3023  3022
  2359  2423  2417  2360  2966  3030  3024  2967
  2423  2424  2418  2417  3030  3031  3025  3024
  2424  2425  2419  2418  3031  3032  3026  3025
  2425  2426  2420  2419  3032  3033  3027  3026
  2426  2427  2421  2420  3033  3034  3028  3027
  2427  2428  2422  2421  3034  3035  3029  3028
  2321  2317  2423  2359  2928  2924  3030  2966
  2317  2313  2424  2423  2924  2920  3031  3030
  2313  2309  2425  2424  2920  2916  3032  3031
  2309  2305  2426  2425  2916  2912  3033  3032
  2305  2297  2427  2426  2912  2904  3034  3033
  2297  2300  2428  2427  2904  2907  3035  3034
  2429  2430  2431  2432  3036  3037  3038  3039
  2430  2433  2434  2431  3037  3040  3041  3038
  2433  2435  2436  2434  3040  3042  3043  3041
  2437  2438  2430  2429  3044  3045  3037  3036
  2438  2439  2433  2430  3045  3046  3040  3037
  2439  2440  2435  2433  3046  3047  3042  3040
  2441  2442  2438  2437  3048  3049  3045  3044
  2442  2443  2439  2438  3049  3050  3046  3045
  2443  2444  2440  2439  3050  3051  3047  3046
  2445  2446  2442  2441  3052  3053  3049  3048
  2446  2447  2443  2442  3053  3054  3050  3049
  2447  2448  2444  2443  3054  3055  3051  3050
  2449  2450  2446  2445  3056  3057  3053  3052
  2450  2451  2447  2446  3057  3058  3054  3053
  2451  2452  2448  2447  3058  3059  3055  3054
  2451  2453  2454  2452  3058  3060  3061  3059
  2453  2455  2456  2454  3060  3062  3063  3061
  2450  2457  2453  2451  3057  3064  3060  3058
  2457  2458  2455  2453  3064  3065  3062  3060
  2449  2459  2457  2450  3056  3066  3064  3057
  2459  2460  2458  2457  3066  3067  3065  3064
  2459  2461  2462  2460  3066  3068  3069  3067
  2461  2463  2464  2462  3068  3070  3071  3069
  2463  2465  2466  2464  3070  3072  3073  3071
  2465  2467  2468  2466  3072  3074  3075  3073
  2449  2469  2461  2459  3056  3076  3068  3066
  2469  2470  2463  2461  3076  3077  3070  3068
  2470  2471  2465  2463  3077  3078  3072  3070
  2471  2472  2467  2465  3078  3079  3074  3072
  2471  2473  2474  2472  3078  3080  3081  3079
  2473  2475  2476  2474  3080  3082  3083  3081
  2475  2477  2478  2476  3082  3084  3085  3083
  2477  2479  2480  2478  3084  3086  3087  3085
  2479  2481  2482  2480  3086  3088  3089  3087
  2481  2483  2484  2482  3088  3090  3091  3089
  2483  2485  2486  2484  3090  3092  3093  3091
  2485  2487  2488  2486  3092  3094  3095  3093
  2487  2489  2490  2488  3094  3096  3097  3095
  2489  2491  2492  2490  3096  3098  3099  3097
  2491  2493  2494  2492  3098  3100  3101  3099
  2470  2495  2473  2471  3077  3102  3080  3078
  2495  2496  2475  2473  3102  3103  3082  3080
  2496  2497  2477  2475  3103  3104  3084  3082
  2497  2498  2479  2477  3104  3105  3086  3084
  2498  2499  2481  2479  3105  3106  3088  3086
  2499  2500  2483  2481  3106  3107  3090  3088
  2500  2501  2485  2483  3107  3108  3092  3090
  2501  2502  2487  2485  3108  3109  3094  3092
  2502  2503  2489  2487  3109  3110  3096  3094
  2503  2504  2491  2489  3110  3111  3098  3096
  2504  2505  2493  2491  3111  3112  3100  3098
  2469  2506  2495  2470  3076  3113  3102  3077
  2506  2507  2496  2495  3113  3114  3103  3102
  2507  2508  2497  2496  3114  3115  3104  3103
  2508  2509  2498  2497  3115  3116  3105  3104
  2509  2510  2499  2498  3116  3117  3106  3105
  2510  2511  2500  2499  3117  3118  3107  3106
  2511  2512  2501  2500  3118  3119  3108  3107
  2512  2513  2502  2501  3119  3120  3109  3108
  2513  2514  2503  2502  3120  3121  3110  3109
  2514  2515  2504  2503  3121  3122  3111  3110
  2515  2516  2505  2504  3122  3123  3112  3111
  2449  2517  2506  2469  3056  3124  3113  3076
  2517  2518  2507  2506  3124  3125  3114  3113
  2518  2519  2508  2507  3125  3126  3115  3114
  2519  2520  2509  2508  3126  3127  3116  3115
  2520  2521  2510  2509  3127  3128  3117  3116
  2521  2522  2511  2510  3128  3129  3118  3117
  2522  2523  2512  2511  3129  3130  3119  3118
  2523  2524  2513  2512  3130  3131  3120  3119
  2524  2525  2514  2513  3131  3132  3121  3120
  2525  2526  2515  2514  3132  3133  3122  3121
  2526  2527  2516  2515  3133  3134  3123  3122
  2526  2528  2529  2527  3133  3135  3136  3134
  2528  2530  2531  2529  3135  3137  3138  3136
  2530  2532  2533  2531  3137  3139  3140  3138
  2532  2534  2535  2533  3139  3141  3142  3140
  2534  2536  2537  2535  3141  3143  3144  3142
  2525  2538  2528  2526  3132  3145  3135  3133
  2538  2539  2530  2528  3145  3146  3137  3135
  2539  2540  2532  2530  3146  3147  3139  3137
  2540  2541  2534  2532  3147  3148  3141  3139
  2541  2542  2536  2534  3148  3149  3143  3141
  2524  2543  2538  2525  3131  3150  3145  3132
  2543  2544  2539  2538  3150  3151  3146  3145
  2544  2545  2540  2539  3151  3152  3147  3146
  2545  2546  2541  2540  3152  3153  3148  3147
  2546  2547  2542  2541  3153  3154  3149  3148
  2523  2548  2543  2524  3130  3155  3150  3131
  2548  2549  2544  2543  3155  3156  3151  3150
  2549  2550  2545  2544  3156  3157  3152  3151
  2550  2551  2546  2545  3157  3158  3153  3152
  2551  2552  2547  2546  3158  3159  3154  3153
  2522  2553  2548  2523  3129  3160  3155  3130
  2553  2554  2549  2548  3160  3161  3156  3155
  2554  2555  2550  2549  3161  3162  3157  3156
  2555  2556  2551  2550  3162  3163  3158  3157
  2556  2557  2552  2551  3163  3164  3159  3158
  2521  2558  2553  2522  3128  3165  3160  3129
  2558  2559  2554  2553  3165  3166  3161  3160
  2559  2560  2555  2554  3166  3167  3162  3161
  2560  2561  2556  2555  3167  3168  3163  3162
  2561  2562  2557  2556  3168  3169  3164  3163
  2520  2563  2558  2521  3127  3170  3165  3128
  2563  2564  2559  2558  3170  3171  3166  3165
  2564  2565  2560  2559  3171  3172  3167  3166
  2565  2566  2561  2560  3172  3173  3168  3167
  2566  2567  2562  2561  3173  3174  3169  3168
  2519  2568  2563  2520  3126  3175  3170  3127
  2568  2569  2564  2563  3175  3176  3171  3170
  2569  2570  2565  2564  3176  3177  3172  3171
  2570  2571  2566  2565  3177  3178  3173  3172
  2571  2572  2567  2566  3178  3179  3174  3173
  2518  2573  2568  2519  3125  3180  3175  3126
  2573  2574  2569  2568  3180  3181  3176  3175
  2574  2575  2570  2569  3181  3182  3177  3176
  2575  2576  2571  2570  3182  3183  3178  3177
  2576  2577  2572  2571  3183  3184  3179  3178
  2517  2578  2573  2518  3124  3185  3180  3125
  2578  2579  2574  2573  3185  3186  3181  3180
  2579  2580  2575  2574  3186  3187  3182  3181
  2580  2581  2576  2575  3187  3188  3183  3182
  2581  2582  2577  2576  3188  3189  3184  3183
  2449  2445  2578  2517  3056  3052  3185  3124
  2445  2441  2579  2578  3052  3048  3186  3185
  2441  2437  2580  2579  3048  3044  3187  3186
  2437  2429  2581  2580  3044  3036  3188  3187
  2429  2432  2582  2581  3036  3039  3189  3188
  2583  2584  2585  2586  3190  3191  3192  3193
  2584  2587  2588  2585  3191  3194  3195  3192
  2587  2589  2590  2588  3194  3196  3197  3195
  2589  2454  2456  2590  3196  3061  3063  3197
  2589  2591  2452  2454  3196  3198  3059  3061
  2591  2592  2448  2452  3198  3199  3055  3059
  2592  2593  2444  2448  3199  3200  3051  3055
  2593  2594  2440  2444  3200  3201  3047  3051
  2594  2595  2435  2440  3201  3202  3042  3047
  2595  2596  2436  2435  3202  3203  3043  3042
  2587  2597  2591  2589  3194  3204  3198  3196
  2597  2598  2592  2591  3204  3205  3199  3198
  2598  2599  2593  2592  3205  3206  3200  3199
  2599  2600  2594  2593  3206  3207  3201  3200
  2600  2601  2595  2594  3207  3208  3202  3201
  2601  2602  2596  2595  3208  3209  3203  3202
  2584  2603  2597  2587  3191  3210  3204  3194
  2603  2604  2598  2597  3210  3211  3205  3204
  2604  2605  2599  2598  3211  3212  3206  3205
  2605  2606  2600  2599  3212  3213  3207  3206
  2606  2607  2601  2600  3213  3214  3208  3207
  2607  2608  2602  2601  3214  3215  3209  3208
  2583  2609  2603  2584  3190  3216  3210  3191
  2609  2610  2604  2603  3216  3217  3211  3210
  2610  2611  2605  2604  3217  3218  3212  3211
  2611  2612  2606  2605  3218  3219  3213  3212
  2612  2613  2607  2606  3219  3220  3214  3213
  2613  2614  2608  2607  3220  3221  3215  3214
  2613  2615  2616  2614  3220  3222  3223  3221
  2615  2617  2618  2616  3222  3224  3225  3223
  2617  2619  2620  2618  3224  3226  3227  3225
  2619  2621  2622  2620  3226  3228  3229  3227
  2621  2623  2624  2622  3228  3230  3231  3229
  2623  2625  2626  2624  3230  3232  3233  3231
  2625  2627  2628  2626  3232  3234  3235  3233
  2627  2629  2630  2628  3234  3236  3237  3235
  2629  2631  2632  2630  3236  3238  3239  3237
  2631  2633  2634  2632  3238  3240  3241  3239
  2633  2635  2636  2634  3240  3242  3243  3241
  2612  2637  2615  2613  3219  3244  3222  3220
  2637  2638  2617  2615  3244  3245  3224  3222
  2638  2639  2619  2617  3245  3246  3226  3224
  2639  2640  2621  2619  3246  3247  3228  3226
  2640  2641  2623  2621  3247  3248  3230  3228
  2641  2642  2625  2623  3248  3249  3232  3230
  2642  2643  2627  2625  3249  3250  3234  3232
  2643  2644  2629  2627  3250  3251  3236  3234
  2644  2645  2631  2629  3251  3252  3238  3236
  2645  2646  2633  2631  3252  3253  3240  3238
  2646  2647  2635  2633  3253  3254  3242  3240
  2611  2648  2637  2612  3218  3255  3244  3219
  2648  2649  2638  2637  3255  3256  3245  3244
  2649  2650  2639  2638  3256  3257  3246  3245
  2650  2651  2640  2639  3257  3258  3247  3246
  2651  2652  2641  2640  3258  3259  3248  3247
  2652  2653  2642  2641  3259  3260  3249  3248
  2653  2654  2643  2642  3260  3261  3250  3249
  2654  2655  2644  2643  3261  3262  3251  3250
  2655  2656  2645  2644  3262  3263  3252  3251
  2656  2657  2646  2645  3263  3264  3253  3252
  2657  2658  2647  2646  3264  3265  3254  3253
  2610  2659  2648  2611  3217  3266  3255  3218
  2659  2660  2649  2648  3266  3267  3256  3255
  2660  2661  2650  2649  3267  3268  3257  3256
  2661  2662  2651  2650  3268  3269  3258  3257
  2662  2663  2652  2651  3269  3270  3259  3258
  2663  2664  2653  2652  3270  3271  3260  3259
  2664  2665  2654  2653  3271  3272  3261  3260
  2665  2666  2655  2654  3272  3273  3262  3261
  2666  2667  2656  2655  3273  3274  3263  3262
  2667  2668  2657  2656  3274  3275  3264  3263
  2668  2669  2658  2657  3275  3276  3265  3264
  2609  2670  2659  2610  3216  3277  3266  3217
  2670  2671  2660  2659  3277  3278  3267  3266
  2671  2672  2661  2660  3278  3279  3268  3267
  2672  2673  2662  2661  3279  3280  3269  3268
  2673  2674  2663  2662  3280  3281  3270  3269
  2674  2675  2664  2663  3281  3282  3271  3270
  2675  2676  2665  2664  3282  3283  3272  3271
  2676  2677  2666  2665  3283  3284  3273  3272
  2677  2678  2667  2666  3284  3285  3274  3273
  2678  2679  2668  2667  3285  3286  3275  3274
  2679  2680  2669  2668  3286  3287  3276  3275
  2583  2681  2670  2609  3190  3288  3277  3216
  2681  2682  2671  2670  3288  3289  3278  3277
  2682  2683  2672  2671  3289  3290  3279  3278
  2683  2684  2673  2672  3290  3291  3280  3279
  2684  2685  2674  2673  3291  3292  3281  3280
  2685  2686  2675  2674  3292  3293  3282  3281
  2686  2687  2676  2675  3293  3294  3283  3282
  2687  2688  2677  2676  3294  3295  3284  3283
  2688  2689  2678  2677  3295  3296  3285  3284
  2689  2690  2679  2678  3296  3297  3286  3285
  2690  2691  2680  2679  3297  3298  3287  3286
  2690  2692  2693  2691  3297  3299  3300  3298
  2692  2694  2695  2693  3299  3301  3302  3300
  2694  2696  2697  2695  3301  3303  3304  3302
  2696  2698  2699  2697  3303  3305  3306  3304
  2689  2700  2692  2690  3296  3307  3299  3297
  2700  2701  2694  2692  3307  3308  3301  3299
  2701  2702  2696  2694  3308  3309  3303  3301
  2702  2703  2698  2696  3309  3310  3305  3303
  2688  2704  2700  2689  3295  3311  3307  3296
  2704  2705  2701  2700  3311  3312  3308  3307
  2705  2706  2702  2701  3312  3313  3309  3308
  2706  2707  2703  2702  3313  3314  3310  3309
  2687  2708  2704  2688  3294  3315  3311  3295
  2708  2709  2705  2704  3315  3316  3312  3311
  2709  2710  2706  2705  3316  3317  3313  3312
  2710  2711  2707  2706  3317  3318  3314  3313
  2686  2712  2708  2687  3293  3319  3315  3294
  2712  2713  2709  2708  3319  3320  3316  3315
  2713  2714  2710  2709  3320  3321  3317  3316
  2714  2715  2711  2710  3321  3322  3318  3317
  2685  2716  2712  2686  3292  3323  3319  3293
  2716  2717  2713  2712  3323  3324  3320  3319
  2717  2718  2714  2713  3324  3325  3321  3320
  2718  2719  2715  2714  3325  3326  3322  3321
  2684  2720  2716  2685  3291  3327  3323  3292
  2720  2721  2717  2716  3327  3328  3324  3323
  2721  2722  2718  2717  3328  3329  3325  3324
  2722  2723  2719  2718  3329  3330  3326  3325
  2683  2724  2720  2684  3290  3331  3327  3291
  2724  2725  2721  2720  3331  3332  3328  3327
  2725  2726  2722  2721  3332  3333  3329  3328
  2726  2727  2723  2722  3333  3334  3330  3329
  2682  2728  2724  2683  3289  3335  3331  3290
  2728  2729  2725  2724  3335  3336  3332  3331
  2729  2730  2726  2725  3336  3337  3333  3332
  2730  2731  2727  2726  3337  3338  3334  3333
  2681  2732  2728  2682  3288  3339  3335  3289
  2732  2733  2729  2728  3339  3340  3336  3335
  2733  2734  2730  2729  3340  3341  3337  3336
  2734  2735  2731  2730  3341  3342  3338  3337
  2583  2736  2732  2681  3190  3343  3339  3288
  2736  2737  2733  2732  3343  3344  3340  3339
  2737  2738  2734  2733  3344  3345  3341  3340
  2738  2739  2735  2734  3345  3346  3342  3341
  2738  2740  2741  2739  3345  3347  3348  3346
  2737  2742  2740  2738  3344  3349  3347  3345
  2736  2743  2742  2737  3343  3350  3349  3344
  2583  2586  2743  2736  3190  3193  3350  3343
  2744  2745  2746  2747  3351  3352  3353  3354
  2745  2748  2749  2746  3352  3355  3356  3353
  2748  2750  2751  2749  3355  3357  3358  3356
  2748  2752  2753  2750  3355  3359  3360  3357
  2752  2754  2755  2753  3359  3361  3362  3360
  2754  2756  2757  2755  3361  3363  3364  3362
  2756  2758  2759  2757  3363  3365  3366  3364
  2758  2760  2761  2759  3365  3367  3368  3366
  2760  2762  2763  2761  3367  3369  3370  3368
  2762  2764  2765  2763  3369  3371  3372  3370
  2745  2766  2752  2748  3352  3373  3359  3355
  2766  2767  2754  2752  3373  3374  3361  3359
  2767  2768  2756  2754  3374  3375  3363  3361
  2768  2769  2758  2756  3375  3376  3365  3363
  2769  2770  2760  2758  3376  3377  3367  3365
  2770  2771  2762  2760  3377  3378  3369  3367
  2771  2772  2764  2762  3378  3379  3371  3369
  2744  2773  2766  2745  3351  3380  3373  3352
  2773  2774  2767  2766  3380  3381  3374  3373
  2774  2775  2768  2767  3381  3382  3375  3374
  2775  2776  2769  2768  3382  3383  3376  3375
  2776  2777  2770  2769  3383  3384  3377  3376
  2777  2778  2771  2770  3384  3385  3378  3377
  2778  2779  2772  2771  3385  3386  3379  3378
  2778  2780  2781  2779  3385  3387  3388  3386
  2780  2782  2783  2781  3387  3389  3390  3388
  2782  2784  2785  2783  3389  3391  3392  3390
  2784  2786  2787  2785  3391  3393  3394  3392
  2786  2788  2789  2787  3393  3395  3396  3394
  2788  2790  2791  2789  3395  3397  3398  3396
  2790  2792  2793  2791  3397  3399  3400  3398
  2792  2794  2795  2793  3399  3401  3402  3400
  2794  2796  2797  2795  3401  3403  3404  3402
  2796  2798  2799  2797  3403  3405  3406  3404
  2798  2800  2801  2799  3405  3407  3408  3406
  2800  2802  2803  2801  3407  3409  3410  3408
  2777  2804  2780  2778  3384  3411  3387  3385
  2804  2805  2782  2780  3411  3412  3389  3387
  2805  2806  2784  2782  3412  3413  3391  3389
  2806  2807  2786  2784  3413  3414  3393  3391
  2807  2808  2788  2786  3414  3415  3395  3393
  2808  2809  2790  2788  3415  3416  3397  3395
  2809  2810  2792  2790  3416  3417  3399  3397
  2810  2811  2794  2792  3417  3418  3401  3399
  2811  2812  2796  2794  3418  3419  3403  3401
  2812  2813  2798  2796  3419  3420  3405  3403
  2813  2814  2800  2798  3420  3421  3407  3405
  2814  2815  2802  2800  3421  3422  3409  3407
  2776  2816  2804  2777  3383  3423  3411  3384
  2816  2817  2805  2804  3423  3424  3412  3411
  2817  2818  2806  2805  3424  3425  3413  3412
  2818  2819  2807  2806  3425  3426  3414  3413
  2819  2820  2808  2807  3426  3427  3415  3414
  2820  2821  2809  2808  3427  3428  3416  3415
  2821  2822  2810  2809  3428  3429  3417  3416
  2822  2823  2811  2810  3429  3430  3418  3417
  2823  2824  2812  2811  3430  3431  3419  3418
  2824  2825  2813  2812  3431  3432  3420  3419
  2825  2826  2814  2813  3432  3433  3421  3420
  2826  2827  2815  2814  3433  3434  3422  3421
  2775  2828  2816  2776  3382  3435  3423  3383
  2828  2829  2817  2816  3435  3436  3424  3423
  2829  2830  2818  2817  3436  3437  3425  3424
  2830  2831  2819  2818  3437  3438  3426  3425
  2831  2832  2820  2819  3438  3439  3427  3426
  2832  2833  2821  2820  3439  3440  3428  3427
  2833  2834  2822  2821  3440  3441  3429  3428
  2834  2835  2823  2822  3441  3442  3430  3429
  2835  2836  2824  2823  3442  3443  3431  3430
  2836  2837  2825  2824  3443  3444  3432  3431
  2837  2838  2826  2825  3444  3445  3433  3432
  2838  2839  2827  2826  3445  3446  3434  3433
  2774  2840  2828  2775  3381  3447  3435  3382
  2840  2841  2829  2828  3447  3448  3436  3435
  2841  2842  2830  2829  3448  3449  3437  3436
  2842  2843  2831  2830  3449  3450  3438  3437
  2843  2844  2832  2831  3450  3451  3439  3438
  2844  2845  2833  2832  3451  3452  3440  3439
  2845  2846  2834  2833  3452  3453  3441  3440
  2846  2847  2835  2834  3453  3454  3442  3441
  2847  2848  2836  2835  3454  3455  3443  3442
  2848  2849  2837  2836  3455  3456  3444  3443
  2849  2850  2838  2837  3456  3457  3445  3444
  2850  2851  2839  2838  3457  3458  3446  3445
  2773  2852  2840  2774  3380  3459  3447  3381
  2852  2853  2841  2840  3459  3460  3448  3447
  2853  2854  2842  2841  3460  3461  3449  3448
  2854  2855  2843  2842  3461  3462  3450  3449
  2855  2856  2844  2843  3462  3463  3451  3450
  2856  2857  2845  2844  3463  3464  3452  3451
  2857  2858  2846  2845  3464  3465  3453  3452
  2858  2859  2847  2846  3465  3466  3454  3453
  2859  2860  2848  2847  3466  3467  3455  3454
  2860  2861  2849  2848  3467  3468  3456  3455
  2861  2862  2850  2849  3468  3469  3457  3456
  2862  2863  2851  2850  3469  3470  3458  3457
  2744  2864  2852  2773  3351  3471  3459  3380
  2864  2865  2853  2852  3471  3472  3460  3459
  2865  2866  2854  2853  3472  3473  3461  3460
  2866  2867  2855  2854  3473  3474  3462  3461
  2867  2868  2856  2855  3474  3475  3463  3462
  2868  2869  2857  2856  3475  3476  3464  3463
  2869  2870  2858  2857  3476  3477  3465  3464
  2870  2871  2859  2858  3477  3478  3466  3465
  2871  2872  2860  2859  3478  3479  3467  3466
  2872  2873  2861  2860  3479  3480  3468  3467
  2873  2874  2862  2861  3480  3481  3469  3468
  2874  2875  2863  2862  3481  3482  3470  3469
  2874  2876  2877  2875  3481  3483  3484  3482
  2876  2878  2879  2877  3483  3485  3486  3484
  2878  2492  2494  2879  3485  3099  3101  3486
  2873  2880  2876  2874  3480  3487  3483  3481
  2880  2881  2878  2876  3487  3488  3485  3483
  2881  2490  2492  2878  3488  3097  3099  3485
  2872  2882  2880  2873  3479  3489  3487  3480
  2882  2883  2881  2880  3489  3490  3488  3487
  2883  2488  2490  2881  3490  3095  3097  3488
  2871  2884  2882  2872  3478  3491  3489  3479
  2884  2885  2883  2882  3491  3492  3490  3489
  2885  2486  2488  2883  3492  3093  3095  3490
  2870  2886  2884  2871  3477  3493  3491  3478
  2886  2887  2885  2884  3493  3494  3492  3491
  2887  2484  2486  2885  3494  3091  3093  3492
  2869  2888  2886  2870  3476  3495  3493  3477
  2888  2889  2887  2886  3495  3496  3494  3493
  2889  2482  2484  2887  3496  3089  3091  3494
  2868  2890  2888  2869  3475  3497  3495  3476
  2890  2891  2889  2888  3497  3498  3496  3495
  2891  2480  2482  2889  3498  3087  3089  3496
  2867  2892  2890  2868  3474  3499  3497  3475
  2892  2893  2891  2890  3499  3500  3498  3497
  2893  2478  2480  2891  3500  3085  3087  3498
  2866  2894  2892  2867  3473  3501  3499  3474
  2894  2895  2893  2892  3501  3502  3500  3499
  2895  2476  2478  2893  3502  3083  3085  3500
  2865  2896  2894  2866  3472  3503  3501  3473
  2896  2897  2895  2894  3503  3504  3502  3501
  2897  2474  2476  2895  3504  3081  3083  3502
  2864  2898  2896  2865  3471  3505  3503  3472
  2898  2899  2897  2896  3505  3506  3504  3503
  2899  2472  2474  2897  3506  3079  3081  3504
  2744  2900  2898  2864  3351  3507  3505  3471
  2900  2901  2899  2898  3507  3508  3506  3505
  2901  2467  2472  2899  3508  3074  3079  3506
  2901  2902  2468  2467  3508  3509  3075  3074
  2900  2903  2902  2901  3507  3510  3509  3508
  2744  2747  2903  2900  3351  3354  3510  3507
  2904  2905  2906  2907  3511  3512  3513  3514
  2905  2908  2909  2906  3512  3515  3516  3513
  2908  2910  2911  2909  3515  3517  3518  3516
  2910  2763  2765  2911  3517  3370  3372  3518
  2912  2913  2905  2904  3519  3520  3512  3511
  2913  2914  2908  2905  3520  3521  3515  3512
  2914  2915  2910  2908  3521  3522  3517  3515
  2915  2761  2763  2910  3522  3368  3370  3517
  2916  2917  2913  2912  3523  3524  3520  3519
  2917  2918  2914  2913  3524  3525  3521  3520
  2918  2919  2915  2914  3525  3526  3522  3521
  2919  2759  2761  2915  3526  3366  3368  3522
  2920  2921  2917  2916  3527  3528  3524  3523
  2921  2922  2918  2917  3528  3529  3525  3524
  2922  2923  2919  2918  3529  3530  3526  3525
  2923  2757  2759  2919  3530  3364  3366  3526
  2924  2925  2921  2920  3531  3532  3528  3527
  2925  2926  2922  2921  3532  3533  3529  3528
  2926  2927  2923  2922  3533  3534  3530  3529
  2927  2755  2757  2923  3534  3362  3364  3530
  2928  2929  2925  2924  3535  3536  3532  3531
  2929  2930  2926  2925  3536  3537  3533  3532
  2930  2931  2927  2926  3537  3538  3534  3533
  2931  2753  2755  2927  3538  3360  3362  3534
  2931  2932  2750  2753  3538  3539  3357  3360
  2932  2933  2751  2750  3539  3540  3358  3357
  2930  2934  2932  2931  3537  3541  3539  3538
  2934  2935  2933  2932  3541  3542  3540  3539
  2929  2936  2934  2930  3536  3543  3541  3537
  2936  2937  2935  2934  3543  3544  3542  3541
  2928  2938  2936  2929  3535  3545  3543  3536
  2938  2939  2937  2936  3545  3546  3544  3543
  2938  2940  2941  2939  3545  3547  3548  3546
  2940  2942  2943  2941  3547  3549  3550  3548
  2942  2739  2741  2943  3549  3346  3348  3550
  2928  2944  2940  2938  3535  3551  3547  3545
  2944  2945  2942  2940  3551  3552  3549  3547
  2945  2735  2739  2942  3552  3342  3346  3549
  2945  2946  2731  2735  3552  3553  3338  3342
  2946  2947  2727  2731  3553  3554  3334  3338
  2947  2948  2723  2727  3554  3555  3330  3334
  2948  2949  2719  2723  3555  3556  3326  3330
  2949  2950  2715  2719  3556  3557  3322  3326
  2950  2951  2711  2715  3557  3558  3318  3322
  2951  2952  2707  2711  3558  3559  3314  3318
  2952  2953  2703  2707  3559  3560  3310  3314
  2953  2954  2698  2703  3560  3561  3305  3310
  2954  2955  2699  2698  3561  3562  3306  3305
  2944  2956  2946  2945  3551  3563  3553  3552
  2956  2957  2947  2946  3563  3564  3554  3553
  2957  2958  2948  2947  3564  3565  3555  3554
  2958  2959  2949  2948  3565  3566  3556  3555
  2959  2960  2950  2949  3566  3567  3557  3556
  2960  2961  2951  2950  3567  3568  3558  3557
  2961  2962  2952  2951  3568  3569  3559  3558
  2962  2963  2953  2952  3569  3570  3560  3559
  2963  2964  2954  2953  3570  3571  3561  3560
  2964  2965  2955  2954  3571  3572  3562  3561
  2928  2966  2956  2944  3535  3573  3563  3551
  2966  2967  2957  2956  3573  3574  3564  3563
  2967  2968  2958  2957  3574  3575  3565  3564
  2968  2969  2959  2958  3575  3576  3566  3565
  2969  2970  2960  2959  3576  3577  3567  3566
  2970  2971  2961  2960  3577  3578  3568  3567
  2971  2972  2962  2961  3578  3579  3569  3568
  2972  2973  2963  2962  3579  3580  3570  3569
  2973  2974  2964  2963  3580  3581  3571  3570
  2974  2975  2965  2964  3581  3582  3572  3571
  2974  2976  2977  2975  3581  3583  3584  3582
  2976  2978  2979  2977  3583  3585  3586  3584
  2978  2980  2981  2979  3585  3587  3588  3586
  2980  2982  2983  2981  3587  3589  3590  3588
  2982  2984  2985  2983  3589  3591  3592  3590
  2984  2986  2987  2985  3591  3593  3594  3592
  2973  2988  2976  2974  3580  3595  3583  3581
  2988  2989  2978  2976  3595  3596  3585  3583
  2989  2990  2980  2978  3596  3597  3587  3585
  2990  2991  2982  2980  3597  3598  3589  3587
  2991  2992  2984  2982  3598  3599  3591  3589
  2992  2993  2986  2984  3599  3600  3593  3591
  2972  2994  2988  2973  3579  3601  3595  3580
  2994  2995  2989  2988  3601  3602  3596  3595
  2995  2996  2990  2989  3602  3603  3597  3596
  2996  2997  2991  2990  3603  3604  3598  3597
  2997  2998  2992  2991  3604  3605  3599  3598
  2998  2999  2993  2992  3605  3606  3600  3599
  2971  3000  2994  2972  3578  3607  3601  3579
  3000  3001  2995  2994  3607  3608  3602  3601
  3001  3002  2996  2995  3608  3609  3603  3602
  3002  3003  2997  2996  3609  3610  3604  3603
  3003  3004  2998  2997  3610  3611  3605  3604
  3004  3005  2999  2998  3611  3612  3606  3605
  2970  3006  3000  2971  3577  3613  3607  3578
  3006  3007  3001  3000  3613  3614  3608  3607
  3007  3008  3002  3001  3614  3615  3609  3608
  3008  3009  3003  3002  3615  3616  3610  3609
  3009  3010  3004  3003  3616  3617  3611  3610
  3010  3011  3005  3004  3617  3618  3612  3611
  2969  3012  3006  2970  3576  3619  3613  3577
  3012  3013  3007  3006  3619  3620  3614  3613
  3013  3014  3008  3007  3620  3621  3615  3614
  3014  3015  3009  3008  3621  3622  3616  3615
  3015  3016  3010  3009  3622  3623  3617  3616
  3016  3017  3011  3010  3623  3624  3618  3617
  2968  3018  3012  2969  3575  3625  3619  3576
  3018  3019  3013  3012  3625  3626  3620  3619
  3019  3020  3014  3013  3626  3627  3621  3620
  3020  3021  3015  3014  3627  3628  3622  3621
  3021  3022  3016  3015  3628  3629  3623  3622
  3022  3023  3017  3016  3629  3630  3624  3623
  2967  3024  3018  2968  3574  3631  3625  3575
  3024  3025  3019  3018  3631  3632  3626  3625
  3025  3026  3020  3019  3632  3633  3627  3626
  3026  3027  3021  3020  3633  3634  3628  3627
  3027  3028  3022  3021  3634  3635  3629  3628
  3028  3029  3023  3022  3635  3636  3630  3629
  2966  3030  3024  2967  3573  3637  3631  3574
  3030  3031  3025  3024  3637  3638  3632  3631
  3031  3032  3026  3025  3638  3639  3633  3632
  3032  3033  3027  3026  3639  3640  3634  3633
  3033  3034  3028  3027  3640  3641  3635  3634
  3034  3035  3029  3028  3641  3642  3636  3635
  2928  2924  3030  2966  3535  3531  3637  3573
  2924  2920  3031  3030  3531  3527  3638  3637
  2920  2916  3032  3031  3527  3523  3639  3638
  2916  2912  3033  3032  3523  3519  3640  3639
  2912  2904  3034  3033  3519  3511  3641  3640
  2904  2907  3035  3034  3511  3514  3642  3641
