 VARIABLES = X,Y,DU1,DU2,U1,U2,S11,S22,S12
 ZONE, T="0.1000D+01" F=FEPOINT, I=   45 J=   32
   0.0000000000E+00   0.1000015433E+01   0.0000000000E+00   0.1543323066E-04   0.0000000000E+00   0.0000000000E+00   0.9634364906E+01   0.9574559617E+01   0.1453381699E-01
   0.2002001105E+00   0.9800285540E+00   0.2001105118E-03   0.2855397519E-04   0.0000000000E+00   0.0000000000E+00   0.3646850362E+01   0.3582183470E+01  -0.6859671548E-01
   0.3397032079E+00   0.1719867260E+01  -0.2967920680E-03  -0.1327400122E-03   0.0000000000E+00   0.0000000000E+00   0.3043603825E+01   0.3047046131E+01   0.2621206420E-02
   0.0000000000E+00   0.1749888371E+01   0.0000000000E+00  -0.1116290975E-03   0.0000000000E+00   0.0000000000E+00   0.1323917780E+02   0.1331482678E+02   0.2730461530E-03
   0.3802465281E+00   0.9197916350E+00   0.2465280744E-03  -0.2083650445E-03   0.0000000000E+00   0.0000000000E+00  -0.4572353505E+01  -0.4397076653E+01  -0.4206884286E-01
   0.6697987750E+00   0.1619858654E+01  -0.2012249760E-03  -0.1413464970E-03   0.0000000000E+00   0.0000000000E+00  -0.1469725234E+01  -0.1468935561E+01   0.1372730419E-01
   0.5603214667E+00   0.8296281029E+00   0.3214666756E-03  -0.3718970835E-03   0.0000000000E+00   0.0000000000E+00   0.1487378266E+02   0.1449472773E+02  -0.1654864315E+00
   0.9697544353E+00   0.1459878757E+01  -0.2455647320E-03  -0.1212434152E-03   0.0000000000E+00   0.0000000000E+00  -0.1295419638E+01  -0.1386166276E+01   0.3014157780E-01
   0.7142787093E+00   0.7099279634E+00   0.4278709319E-02  -0.7203655939E-04   0.0000000000E+00   0.0000000000E+00  -0.2750160225E+01  -0.3726342839E+01  -0.7298793503E+00
   0.1241007642E+01   0.1239984386E+01   0.1007641738E-02  -0.1561426805E-04   0.0000000000E+00   0.0000000000E+00  -0.1184702193E+01  -0.1452685628E+01  -0.1352713138E+00
   0.8399827357E+00   0.5600599514E+00   0.9982735747E-02   0.5995136947E-04   0.0000000000E+00   0.0000000000E+00   0.6941540857E+00   0.4200019385E+00  -0.8583288787E+00
   0.1463866140E+01   0.9700338212E+00   0.3866139522E-02   0.3382117814E-04   0.0000000000E+00   0.0000000000E+00   0.1637362681E+00   0.8926138575E-01  -0.2867143091E+00
   0.9339171445E+00   0.3800951975E+00   0.1391714455E-01   0.9519748732E-04   0.0000000000E+00   0.0000000000E+00  -0.6631183616E+00  -0.2218544864E+00  -0.5942131066E+00
   0.1626264944E+01   0.6700291959E+00   0.6264943624E-02   0.2919591250E-04   0.0000000000E+00   0.0000000000E+00  -0.9116642397E+00  -0.6686899364E+00  -0.2482598308E+00
   0.9959888521E+00   0.2000817805E+00   0.1598885210E-01   0.8178053241E-04   0.0000000000E+00   0.0000000000E+00   0.1737009931E+01   0.2551110873E+01  -0.2902739358E+00
   0.1727764992E+01   0.3400152243E+00   0.7764991851E-02   0.1522427126E-04   0.0000000000E+00   0.0000000000E+00  -0.2924332242E+01  -0.2496206911E+01  -0.1277255994E+00
   0.1016686174E+01   0.0000000000E+00   0.1668617388E-01   0.0000000000E+00   0.0000000000E+00   0.0000000000E+00   0.3370065242E+01   0.4314078418E+01  -0.8439364288E-01
   0.1758307952E+01   0.0000000000E+00   0.8307952346E-02   0.0000000000E+00   0.0000000000E+00   0.0000000000E+00  -0.4175286050E+01  -0.3680170089E+01  -0.4326732560E-01
   0.4901470075E+00   0.2449909354E+01   0.1470074623E-03  -0.9064625352E-04   0.0000000000E+00   0.0000000000E+00  -0.2093806405E+00  -0.2381984731E+00   0.2197488507E-01
   0.0000000000E+00   0.2499854762E+01   0.0000000000E+00  -0.1452382358E-03   0.0000000000E+00   0.0000000000E+00  -0.1607810775E+01  -0.1629644413E+01   0.3741475890E-02
   0.9604658564E+00   0.2309961934E+01   0.4658563622E-03  -0.3806587247E-04   0.0000000000E+00   0.0000000000E+00   0.5828998655E+00   0.4879078115E+00   0.2035266119E-01
   0.1391309551E+01   0.2079996068E+01   0.1309550725E-02  -0.3931801857E-05   0.0000000000E+00   0.0000000000E+00   0.6105084440E+00   0.4380850204E+00   0.2862644891E-02
   0.1772364897E+01   0.1770002203E+01   0.2364896584E-02   0.2203228155E-05   0.0000000000E+00   0.0000000000E+00   0.3124260175E+00   0.1530288361E+00  -0.1500173191E-01
   0.2083273049E+01   0.1390012787E+01   0.3273048745E-02   0.1278673819E-04   0.0000000000E+00   0.0000000000E+00   0.1737773288E+00   0.8995457160E-01  -0.4950408021E-01
   0.2314305912E+01   0.9600194220E+00   0.4305912291E-02   0.1942203291E-04   0.0000000000E+00   0.0000000000E+00   0.3996903268E+00   0.4070583607E+00  -0.7586097529E-01
   0.2455140046E+01   0.4900128555E+00   0.5140045557E-02   0.1285550519E-04   0.0000000000E+00   0.0000000000E+00   0.5206360163E+00   0.6182175552E+00  -0.4641875596E-01
   0.2505442252E+01   0.0000000000E+00   0.5442251782E-02   0.0000000000E+00   0.0000000000E+00   0.0000000000E+00   0.5222039900E+00   0.6545148250E+00  -0.1609348775E-01
   0.6303817816E+00   0.3189957995E+01   0.3817815557E-03  -0.4200504366E-04   0.0000000000E+00   0.0000000000E+00  -0.1001941626E+00  -0.1456665196E+00   0.4137584128E-02
   0.0000000000E+00   0.3249866766E+01   0.0000000000E+00  -0.1332337162E-03   0.0000000000E+00   0.0000000000E+00   0.1362037154E+01   0.1330237549E+01   0.5823950479E-02
   0.1240937479E+01   0.3000002063E+01   0.9374791985E-03   0.2063489827E-05   0.0000000000E+00   0.0000000000E+00  -0.1029453550E+00  -0.1661171037E+00  -0.1644070593E-02
   0.1811580044E+01   0.2700013646E+01   0.1580043830E-02   0.1364602423E-04   0.0000000000E+00   0.0000000000E+00   0.1066779019E+00   0.5471446007E-01  -0.2085566551E-01
   0.2302293365E+01   0.2300016123E+01   0.2293365365E-02   0.1612316589E-04   0.0000000000E+00   0.0000000000E+00   0.4370017560E+00   0.4027016424E+00  -0.3805293646E-01
   0.2703084969E+01   0.1810012850E+01   0.3084969129E-02   0.1284953534E-04   0.0000000000E+00   0.0000000000E+00   0.3967525022E+00   0.3706881346E+00  -0.3859860049E-01
   0.3003784628E+01   0.1240009214E+01   0.3784627820E-02   0.9214277995E-05   0.0000000000E+00   0.0000000000E+00   0.2803417764E+00   0.2831165978E+00  -0.3515867783E-01
   0.3194283765E+01   0.6300056216E+00   0.4283764822E-02   0.5621577034E-05   0.0000000000E+00   0.0000000000E+00   0.8592700306E-01   0.1206962828E+00  -0.2088177731E-01
   0.3254476967E+01   0.0000000000E+00   0.4476966798E-02   0.0000000000E+00   0.0000000000E+00   0.0000000000E+00  -0.6303194882E-01  -0.1447597920E-01  -0.7567477228E-02
   0.7804497815E+00   0.3920050993E+01   0.4497814847E-03   0.5099259787E-04   0.0000000000E+00   0.0000000000E+00  -0.2726469999E-01  -0.5934419707E-01   0.1564358547E-02
   0.0000000000E+00   0.3999930729E+01   0.0000000000E+00  -0.6927126363E-04   0.0000000000E+00   0.0000000000E+00  -0.4018698066E+00  -0.4331285455E+00   0.6650111134E-02
   0.1530959975E+01   0.3700059219E+01   0.9599749664E-03   0.5921948241E-04   0.0000000000E+00   0.0000000000E+00   0.4350674982E+00   0.3996565562E+00  -0.1097383334E-01
   0.2221553364E+01   0.3330049525E+01   0.1553364398E-02   0.4952545267E-04   0.0000000000E+00   0.0000000000E+00   0.3526641493E+00   0.3088821680E+00  -0.1443927376E-01
   0.2832261868E+01   0.2830042885E+01   0.2261868332E-02   0.4288536184E-04   0.0000000000E+00   0.0000000000E+00   0.4088516181E-01  -0.8189312202E-02  -0.1783249280E-01
   0.3332987954E+01   0.2220038449E+01   0.2987954092E-02   0.3844909883E-04   0.0000000000E+00   0.0000000000E+00   0.3385383150E-01   0.6336111731E-02  -0.2486035607E-01
   0.3703630166E+01   0.1530030268E+01   0.3630166060E-02   0.3026823612E-04   0.0000000000E+00   0.0000000000E+00   0.6590132362E-01   0.5615776516E-01  -0.2281777945E-01
   0.3924071597E+01   0.7800173959E+00   0.4071597130E-02   0.1739590613E-04   0.0000000000E+00   0.0000000000E+00   0.3070335594E+00   0.3123586834E+00  -0.1182223256E-01
   0.4004222929E+01   0.0000000000E+00   0.4222929413E-02   0.0000000000E+00   0.0000000000E+00   0.0000000000E+00   0.5026541055E+00   0.5165731747E+00  -0.4224253141E-02
           1           2           3           4
           2           5           6           3
           5           7           8           6
           7           9          10           8
           9          11          12          10
          11          13          14          12
          13          15          16          14
          15          17          18          16
           4           3          19          20
           3           6          21          19
           6           8          22          21
           8          10          23          22
          10          12          24          23
          12          14          25          24
          14          16          26          25
          16          18          27          26
          20          19          28          29
          19          21          30          28
          21          22          31          30
          22          23          32          31
          23          24          33          32
          24          25          34          33
          25          26          35          34
          26          27          36          35
          29          28          37          38
          28          30          39          37
          30          31          40          39
          31          32          41          40
          32          33          42          41
          33          34          43          42
          34          35          44          43
          35          36          45          44
