 VARIABLES = X,Y,Z,DU1,DU2,DU3,U1,U2,U3,e11,e22,e33,e12,e13,e23,S11,S22,S33,S12,S13,S23
 ZONE, T="0.5000D-01" F=FEPOINT, I=   12 J=    2 ET=BRICK
   0.0000000000E+00   0.0000000000E+00   0.0000000000E+00   0.0000000000E+00   0.0000000000E+00   0.0000000000E+00   0.0000000000E+00   0.0000000000E+00   0.0000000000E+00   0.0000000000E+00   0.0000000000E+00   0.0000000000E+00   0.0000000000E+00   0.0000000000E+00   0.0000000000E+00   0.9988341484E+00   0.2538608043E-09   0.2538607411E-09   0.1618478210E-17  -0.1035233445E-15  -0.3664633479E-16
   0.1010000000E+01   0.0000000000E+00  -0.1159220934E-17   0.1000000000E-01   0.0000000000E+00  -0.1159220934E-17   0.0000000000E+00   0.0000000000E+00   0.0000000000E+00   0.0000000000E+00   0.0000000000E+00   0.0000000000E+00   0.0000000000E+00   0.0000000000E+00   0.0000000000E+00   0.9988341483E+00   0.2538604641E-09   0.2538603007E-09   0.1169529042E-15   0.1633627114E-15   0.3379830239E-16
   0.1010000000E+01   0.9951664724E+00  -0.1922227860E-18   0.1000000000E-01  -0.4833527642E-02  -0.1922227860E-18   0.0000000000E+00   0.0000000000E+00   0.0000000000E+00   0.0000000000E+00   0.0000000000E+00   0.0000000000E+00   0.0000000000E+00   0.0000000000E+00   0.0000000000E+00   0.9988341482E+00   0.2538643672E-09   0.2538642914E-09   0.1144387185E-15  -0.1799061415E-15   0.2065780104E-16
   0.0000000000E+00   0.9951664724E+00  -0.3355614847E-18   0.0000000000E+00  -0.4833527642E-02  -0.3355614847E-18   0.0000000000E+00   0.0000000000E+00   0.0000000000E+00   0.0000000000E+00   0.0000000000E+00   0.0000000000E+00   0.0000000000E+00   0.0000000000E+00   0.0000000000E+00   0.9988341482E+00   0.2538654856E-09   0.2538654106E-09  -0.9542804310E-17   0.6489597791E-16   0.5075653808E-17
   0.0000000000E+00   0.0000000000E+00   0.9951664724E+00   0.0000000000E+00   0.0000000000E+00  -0.4833527642E-02   0.0000000000E+00   0.0000000000E+00   0.0000000000E+00   0.0000000000E+00   0.0000000000E+00   0.0000000000E+00   0.0000000000E+00   0.0000000000E+00   0.0000000000E+00   0.9988341482E+00   0.2538604473E-09   0.2538604760E-09   0.4281576106E-17  -0.5591566445E-16   0.6236123001E-16
   0.1010000000E+01   0.0000000000E+00   0.9951664724E+00   0.1000000000E-01   0.0000000000E+00  -0.4833527642E-02   0.0000000000E+00   0.0000000000E+00   0.0000000000E+00   0.0000000000E+00   0.0000000000E+00   0.0000000000E+00   0.0000000000E+00   0.0000000000E+00   0.0000000000E+00   0.9988341482E+00   0.2538596669E-09   0.2538596231E-09  -0.6523817282E-16   0.1090306771E-15   0.6217307793E-16
   0.1010000000E+01   0.9951664724E+00   0.9951664724E+00   0.1000000000E-01  -0.4833527642E-02  -0.4833527642E-02   0.0000000000E+00   0.0000000000E+00   0.0000000000E+00   0.0000000000E+00   0.0000000000E+00   0.0000000000E+00   0.0000000000E+00   0.0000000000E+00   0.0000000000E+00   0.9988341481E+00   0.2538583659E-09   0.2538584097E-09  -0.7645392353E-16  -0.1335104034E-15  -0.1232415083E-16
   0.0000000000E+00   0.9951664724E+00   0.9951664724E+00   0.0000000000E+00  -0.4833527642E-02  -0.4833527642E-02   0.0000000000E+00   0.0000000000E+00   0.0000000000E+00   0.0000000000E+00   0.0000000000E+00   0.0000000000E+00   0.0000000000E+00   0.0000000000E+00   0.0000000000E+00   0.9988341481E+00   0.2538599244E-09   0.2538599413E-09  -0.6477456099E-17   0.4134300817E-16  -0.9262144858E-18
   0.2020000000E+01   0.0000000000E+00  -0.1360884927E-17   0.2000000000E-01   0.0000000000E+00  -0.1360884927E-17   0.0000000000E+00   0.0000000000E+00   0.0000000000E+00   0.0000000000E+00   0.0000000000E+00   0.0000000000E+00   0.0000000000E+00   0.0000000000E+00   0.0000000000E+00   0.9988341483E+00   0.2538620379E-09   0.2538621888E-09  -0.1329161150E-16   0.3073694433E-16  -0.4913554741E-16
   0.2020000000E+01   0.9951664724E+00  -0.1464215854E-17   0.2000000000E-01  -0.4833527642E-02  -0.1464215854E-17   0.0000000000E+00   0.0000000000E+00   0.0000000000E+00   0.0000000000E+00   0.0000000000E+00   0.0000000000E+00   0.0000000000E+00   0.0000000000E+00   0.0000000000E+00   0.9988341482E+00   0.2538599588E-09   0.2538599461E-09  -0.8141782552E-16   0.3005654083E-17   0.6129816579E-16
   0.2020000000E+01   0.0000000000E+00   0.9951664724E+00   0.2000000000E-01   0.0000000000E+00  -0.4833527642E-02   0.0000000000E+00   0.0000000000E+00   0.0000000000E+00   0.0000000000E+00   0.0000000000E+00   0.0000000000E+00   0.0000000000E+00   0.0000000000E+00   0.0000000000E+00   0.9988341482E+00   0.2538635779E-09   0.2538637010E-09   0.4914609620E-16   0.1212924449E-15   0.1405620469E-16
   0.2020000000E+01   0.9951664724E+00   0.9951664724E+00   0.2000000000E-01  -0.4833527642E-02  -0.4833527642E-02   0.0000000000E+00   0.0000000000E+00   0.0000000000E+00   0.0000000000E+00   0.0000000000E+00   0.0000000000E+00   0.0000000000E+00   0.0000000000E+00   0.0000000000E+00   0.9988341481E+00   0.2538562945E-09   0.2538562541E-09   0.2960089035E-16   0.5321294656E-16  -0.6392195979E-16
     1     2     3     4     5     6     7     8
     2     9    10     3     6    11    12     7
 VARIABLES = X,Y,Z,DU1,DU2,DU3,U1,U2,U3,e11,e22,e33,e12,e13,e23,S11,S22,S33,S12,S13,S23
 ZONE, T="0.1000D+00" F=FEPOINT, I=   12 J=    2 ET=BRICK
   0.0000000000E+00   0.0000000000E+00   0.0000000000E+00   0.0000000000E+00   0.0000000000E+00   0.0000000000E+00   0.0000000000E+00   0.0000000000E+00   0.0000000000E+00   0.0000000000E+00   0.0000000000E+00   0.0000000000E+00   0.0000000000E+00   0.0000000000E+00   0.0000000000E+00   0.1071134398E+01   0.4336619747E-06   0.4336619747E-06   0.1050366591E-16  -0.1210043424E-16  -0.4769710329E-17
   0.1020000000E+01   0.0000000000E+00   0.8521232229E-18   0.1000000000E-01   0.0000000000E+00   0.2011344156E-17   0.1000000000E-01   0.0000000000E+00  -0.1159220934E-17   0.0000000000E+00   0.0000000000E+00   0.0000000000E+00   0.0000000000E+00   0.0000000000E+00   0.0000000000E+00   0.1071134398E+01   0.4336619689E-06   0.4336619690E-06   0.7578953434E-16   0.2205563206E-15  -0.5434373526E-16
   0.1020000000E+01   0.9901785225E+00  -0.1105642163E-17   0.1000000000E-01  -0.4987949814E-02  -0.9134193770E-18   0.1000000000E-01  -0.4833527642E-02  -0.1922227860E-18   0.0000000000E+00   0.0000000000E+00   0.0000000000E+00   0.0000000000E+00   0.0000000000E+00   0.0000000000E+00   0.1071134398E+01   0.4336619720E-06   0.4336619722E-06   0.1125176704E-15  -0.1960534067E-15   0.8914080911E-16
   0.0000000000E+00   0.9901785225E+00  -0.1087125584E-17   0.0000000000E+00  -0.4987949814E-02  -0.7515640989E-18   0.0000000000E+00  -0.4833527642E-02  -0.3355614847E-18   0.0000000000E+00   0.0000000000E+00   0.0000000000E+00   0.0000000000E+00   0.0000000000E+00   0.0000000000E+00   0.1071134398E+01   0.4336619696E-06   0.4336619695E-06  -0.4246680172E-16   0.6833847997E-16   0.2562992774E-16
   0.0000000000E+00   0.0000000000E+00   0.9901785225E+00   0.0000000000E+00   0.0000000000E+00  -0.4987949814E-02   0.0000000000E+00   0.0000000000E+00  -0.4833527642E-02   0.0000000000E+00   0.0000000000E+00   0.0000000000E+00   0.0000000000E+00   0.0000000000E+00   0.0000000000E+00   0.1071134398E+01   0.4336619768E-06   0.4336619767E-06   0.9236054088E-17   0.5207960649E-16  -0.4648877723E-16
   0.1020000000E+01   0.0000000000E+00   0.9901785225E+00   0.1000000000E-01   0.0000000000E+00  -0.4987949814E-02   0.1000000000E-01   0.0000000000E+00  -0.4833527642E-02   0.0000000000E+00   0.0000000000E+00   0.0000000000E+00   0.0000000000E+00   0.0000000000E+00   0.0000000000E+00   0.1071134398E+01   0.4336619755E-06   0.4336619754E-06  -0.1386826149E-15   0.1313270692E-15  -0.1239509653E-16
   0.1020000000E+01   0.9901785225E+00   0.9901785225E+00   0.1000000000E-01  -0.4987949814E-02  -0.4987949814E-02   0.1000000000E-01  -0.4833527642E-02  -0.4833527642E-02   0.0000000000E+00   0.0000000000E+00   0.0000000000E+00   0.0000000000E+00   0.0000000000E+00   0.0000000000E+00   0.1071134397E+01   0.4336619786E-06   0.4336619786E-06  -0.1120064084E-15  -0.1071862437E-15  -0.5215216762E-17
   0.0000000000E+00   0.9901785225E+00   0.9901785225E+00   0.0000000000E+00  -0.4987949814E-02  -0.4987949814E-02   0.0000000000E+00  -0.4833527642E-02  -0.4833527642E-02   0.0000000000E+00   0.0000000000E+00   0.0000000000E+00   0.0000000000E+00   0.0000000000E+00   0.0000000000E+00   0.1071134398E+01   0.4336619717E-06   0.4336619715E-06   0.2531385405E-16   0.4089433051E-16   0.2653658593E-16
   0.2040000000E+01   0.0000000000E+00  -0.1360553609E-17   0.2000000000E-01   0.0000000000E+00   0.3313181372E-21   0.2000000000E-01   0.0000000000E+00  -0.1360884927E-17   0.0000000000E+00   0.0000000000E+00   0.0000000000E+00   0.0000000000E+00   0.0000000000E+00   0.0000000000E+00   0.1071134398E+01   0.4336619736E-06   0.4336619738E-06  -0.3458413502E-17   0.1972400260E-16  -0.5782457728E-16
   0.2040000000E+01   0.9901785225E+00  -0.3221696187E-17   0.2000000000E-01  -0.4987949814E-02  -0.1757480333E-17   0.2000000000E-01  -0.4833527642E-02  -0.1464215854E-17   0.0000000000E+00   0.0000000000E+00   0.0000000000E+00   0.0000000000E+00   0.0000000000E+00   0.0000000000E+00   0.1071134398E+01   0.4336619694E-06   0.4336619695E-06   0.3286332223E-17   0.3201276397E-16   0.7363060724E-16
   0.2040000000E+01   0.0000000000E+00   0.9901785225E+00   0.2000000000E-01   0.0000000000E+00  -0.4987949814E-02   0.2000000000E-01   0.0000000000E+00  -0.4833527642E-02   0.0000000000E+00   0.0000000000E+00   0.0000000000E+00   0.0000000000E+00   0.0000000000E+00   0.0000000000E+00   0.1071134398E+01   0.4336619794E-06   0.4336619794E-06   0.3916315797E-16  -0.9723765379E-16   0.1814422045E-16
   0.2040000000E+01   0.9901785225E+00   0.9901785225E+00   0.2000000000E-01  -0.4987949814E-02  -0.4987949814E-02   0.2000000000E-01  -0.4833527642E-02  -0.4833527642E-02   0.0000000000E+00   0.0000000000E+00   0.0000000000E+00   0.0000000000E+00   0.0000000000E+00   0.0000000000E+00   0.1071134397E+01   0.4336619752E-06   0.4336619750E-06   0.4814287376E-17   0.2035162234E-15   0.6706871705E-16
     1     2     3     4     5     6     7     8
     2     9    10     3     6    11    12     7
 VARIABLES = X,Y,Z,DU1,DU2,DU3,U1,U2,U3,e11,e22,e33,e12,e13,e23,S11,S22,S33,S12,S13,S23
 ZONE, T="0.1500D+00" F=FEPOINT, I=   12 J=    2 ET=BRICK
   0.0000000000E+00   0.0000000000E+00   0.0000000000E+00   0.0000000000E+00   0.0000000000E+00   0.0000000000E+00   0.0000000000E+00   0.0000000000E+00   0.0000000000E+00   0.0000000000E+00   0.0000000000E+00   0.0000000000E+00   0.0000000000E+00   0.0000000000E+00   0.0000000000E+00   0.1115661125E+01   0.1785989882E-09   0.1785989076E-09  -0.8809756450E-17   0.3083413429E-16   0.8709881314E-18
   0.1030000000E+01   0.0000000000E+00   0.2893899664E-17   0.1000000000E-01   0.0000000000E+00   0.2041776441E-17   0.2000000000E-01   0.0000000000E+00   0.8521232229E-18   0.0000000000E+00   0.0000000000E+00   0.0000000000E+00   0.0000000000E+00   0.0000000000E+00   0.0000000000E+00   0.1115661125E+01   0.1785957116E-09   0.1785956958E-09   0.5873865468E-16   0.4726670040E-16  -0.3048291955E-16
   0.1030000000E+01   0.9851859435E+00   0.3723919992E-18   0.1000000000E-01  -0.4992579023E-02   0.1478034162E-17   0.2000000000E-01  -0.9821477456E-02  -0.1105642163E-17   0.0000000000E+00   0.0000000000E+00   0.0000000000E+00   0.0000000000E+00   0.0000000000E+00   0.0000000000E+00   0.1115661125E+01   0.1785957439E-09   0.1785957008E-09   0.1688375592E-16  -0.6266539278E-16   0.3022543551E-17
   0.0000000000E+00   0.9851859435E+00   0.2662384128E-17   0.0000000000E+00  -0.4992579023E-02   0.3749509712E-17   0.0000000000E+00  -0.9821477456E-02  -0.1087125584E-17   0.0000000000E+00   0.0000000000E+00   0.0000000000E+00   0.0000000000E+00   0.0000000000E+00   0.0000000000E+00   0.1115661125E+01   0.1785989720E-09   0.1785989051E-09  -0.5466401022E-16   0.3794908507E-17  -0.4545309778E-16
   0.0000000000E+00   0.0000000000E+00   0.9851859435E+00   0.0000000000E+00   0.0000000000E+00  -0.4992579023E-02   0.0000000000E+00   0.0000000000E+00  -0.9821477456E-02   0.0000000000E+00   0.0000000000E+00   0.0000000000E+00   0.0000000000E+00   0.0000000000E+00   0.0000000000E+00   0.1115661125E+01   0.1785855657E-09   0.1785855786E-09   0.8694162178E-17   0.5413966728E-17   0.2901144930E-16
   0.1030000000E+01   0.0000000000E+00   0.9851859435E+00   0.1000000000E-01   0.0000000000E+00  -0.4992579023E-02   0.2000000000E-01   0.0000000000E+00  -0.9821477456E-02   0.0000000000E+00   0.0000000000E+00   0.0000000000E+00   0.0000000000E+00   0.0000000000E+00   0.0000000000E+00   0.1115661125E+01   0.1785952903E-09   0.1785953119E-09  -0.1975023671E-18  -0.9221193846E-17  -0.7871289923E-17
   0.1030000000E+01   0.9851859435E+00   0.9851859435E+00   0.1000000000E-01  -0.4992579023E-02  -0.4992579023E-02   0.2000000000E-01  -0.9821477456E-02  -0.9821477456E-02   0.0000000000E+00   0.0000000000E+00   0.0000000000E+00   0.0000000000E+00   0.0000000000E+00   0.0000000000E+00   0.1115661125E+01   0.1785900948E-09   0.1785900890E-09   0.5450525542E-16  -0.5802396380E-16   0.7945899921E-16
   0.0000000000E+00   0.9851859435E+00   0.9851859435E+00   0.0000000000E+00  -0.4992579023E-02  -0.4992579023E-02   0.0000000000E+00  -0.9821477456E-02  -0.9821477456E-02   0.0000000000E+00   0.0000000000E+00   0.0000000000E+00   0.0000000000E+00   0.0000000000E+00   0.0000000000E+00   0.1115661125E+01   0.1785881634E-09   0.1785881900E-09   0.5628311214E-16   0.2114961958E-16  -0.2719698821E-16
   0.2060000000E+01   0.0000000000E+00  -0.9555456823E-18   0.2000000000E-01   0.0000000000E+00   0.4050079265E-18   0.4000000000E-01   0.0000000000E+00  -0.1360553609E-17   0.0000000000E+00   0.0000000000E+00   0.0000000000E+00   0.0000000000E+00   0.0000000000E+00   0.0000000000E+00   0.1115661125E+01   0.1785873977E-09   0.1785873172E-09  -0.1807544602E-16  -0.2716763717E-16  -0.3022876147E-16
   0.2060000000E+01   0.9851859435E+00  -0.3904264986E-17   0.2000000000E-01  -0.4992579023E-02  -0.6825687991E-18   0.4000000000E-01  -0.9821477456E-02  -0.3221696187E-17   0.0000000000E+00   0.0000000000E+00   0.0000000000E+00   0.0000000000E+00   0.0000000000E+00   0.0000000000E+00   0.1115661125E+01   0.1785975805E-09   0.1785976905E-09   0.2388098657E-16   0.1884334315E-15  -0.1048018601E-15
   0.2060000000E+01   0.0000000000E+00   0.9851859435E+00   0.2000000000E-01   0.0000000000E+00  -0.4992579023E-02   0.4000000000E-01   0.0000000000E+00  -0.9821477456E-02   0.0000000000E+00   0.0000000000E+00   0.0000000000E+00   0.0000000000E+00   0.0000000000E+00   0.0000000000E+00   0.1115661125E+01   0.1785998007E-09   0.1785997014E-09   0.4377365542E-16  -0.1678531872E-15   0.7122345396E-16
   0.2060000000E+01   0.9851859435E+00   0.9851859435E+00   0.2000000000E-01  -0.4992579023E-02  -0.4992579023E-02   0.4000000000E-01  -0.9821477456E-02  -0.9821477456E-02   0.0000000000E+00   0.0000000000E+00   0.0000000000E+00   0.0000000000E+00   0.0000000000E+00   0.0000000000E+00   0.1115661125E+01   0.1785971381E-09   0.1785972295E-09  -0.3900153891E-16   0.1535289621E-15  -0.1204274264E-16
     1     2     3     4     5     6     7     8
     2     9    10     3     6    11    12     7
 VARIABLES = X,Y,Z,DU1,DU2,DU3,U1,U2,U3,e11,e22,e33,e12,e13,e23,S11,S22,S33,S12,S13,S23
 ZONE, T="0.2000D+00" F=FEPOINT, I=   12 J=    2 ET=BRICK
   0.0000000000E+00   0.0000000000E+00   0.0000000000E+00   0.0000000000E+00   0.0000000000E+00   0.0000000000E+00   0.0000000000E+00   0.0000000000E+00   0.0000000000E+00   0.0000000000E+00   0.0000000000E+00   0.0000000000E+00   0.0000000000E+00   0.0000000000E+00   0.0000000000E+00   0.1148331417E+01   0.1878453832E-10   0.1878454500E-10   0.1343299765E-16  -0.3540559410E-16  -0.1078986085E-15
   0.1040000000E+01   0.0000000000E+00  -0.3387127359E-17   0.1000000000E-01   0.0000000000E+00  -0.6281027023E-17   0.3000000000E-01   0.0000000000E+00   0.2893899664E-17   0.0000000000E+00   0.0000000000E+00   0.0000000000E+00   0.0000000000E+00   0.0000000000E+00   0.0000000000E+00   0.1148331417E+01   0.1879501864E-10   0.1879498980E-10  -0.1215022561E-15  -0.1244096795E-17  -0.4077988491E-16
   0.1040000000E+01   0.9801913886E+00  -0.7723098809E-17   0.1000000000E-01  -0.4994554951E-02  -0.8095490808E-17   0.3000000000E-01  -0.1481405648E-01   0.3723919992E-18   0.0000000000E+00   0.0000000000E+00   0.0000000000E+00   0.0000000000E+00   0.0000000000E+00   0.0000000000E+00   0.1148331417E+01   0.1880495927E-10   0.1880508233E-10  -0.4174239693E-16  -0.5391018845E-16  -0.2629430233E-16
   0.0000000000E+00   0.9801913886E+00  -0.1403851935E-16   0.0000000000E+00  -0.4994554951E-02  -0.1670090348E-16   0.0000000000E+00  -0.1481405648E-01   0.2662384128E-17   0.0000000000E+00   0.0000000000E+00   0.0000000000E+00   0.0000000000E+00   0.0000000000E+00   0.0000000000E+00   0.1148331417E+01   0.1880921216E-10   0.1880958889E-10   0.5430599102E-16   0.7601272856E-16  -0.9579580448E-16
   0.0000000000E+00   0.0000000000E+00   0.9801913886E+00   0.0000000000E+00   0.0000000000E+00  -0.4994554951E-02   0.0000000000E+00   0.0000000000E+00  -0.1481405648E-01   0.0000000000E+00   0.0000000000E+00   0.0000000000E+00   0.0000000000E+00   0.0000000000E+00   0.0000000000E+00   0.1148331417E+01   0.1880592001E-10   0.1880562493E-10  -0.2687793942E-17   0.5037828736E-17   0.2137016757E-16
   0.1040000000E+01   0.0000000000E+00   0.9801913886E+00   0.1000000000E-01   0.0000000000E+00  -0.4994554951E-02   0.3000000000E-01   0.0000000000E+00  -0.1481405648E-01   0.0000000000E+00   0.0000000000E+00   0.0000000000E+00   0.0000000000E+00   0.0000000000E+00   0.0000000000E+00   0.1148331417E+01   0.1879794448E-10   0.1879790018E-10  -0.1159045334E-15  -0.2347430621E-16   0.1732110589E-16
   0.1040000000E+01   0.9801913886E+00   0.9801913886E+00   0.1000000000E-01  -0.4994554951E-02  -0.4994554951E-02   0.3000000000E-01  -0.1481405648E-01  -0.1481405648E-01   0.0000000000E+00   0.0000000000E+00   0.0000000000E+00   0.0000000000E+00   0.0000000000E+00   0.0000000000E+00   0.1148331417E+01   0.1879764979E-10   0.1879775744E-10  -0.1022980938E-15   0.2299596636E-16   0.4113797769E-16
   0.0000000000E+00   0.9801913886E+00   0.9801913886E+00   0.0000000000E+00  -0.4994554951E-02  -0.4994554951E-02   0.0000000000E+00  -0.1481405648E-01  -0.1481405648E-01   0.0000000000E+00   0.0000000000E+00   0.0000000000E+00   0.0000000000E+00   0.0000000000E+00   0.0000000000E+00   0.1148331417E+01   0.1880454982E-10   0.1880462479E-10  -0.4640162079E-16  -0.5822521395E-16   0.1997556807E-15
   0.2080000000E+01   0.0000000000E+00  -0.3691820805E-17   0.2000000000E-01   0.0000000000E+00  -0.2736275123E-17   0.6000000000E-01   0.0000000000E+00  -0.9555456823E-18   0.0000000000E+00   0.0000000000E+00   0.0000000000E+00   0.0000000000E+00   0.0000000000E+00   0.0000000000E+00   0.1148331417E+01   0.1879862741E-10   0.1879860526E-10   0.2111297502E-17  -0.7513769910E-16  -0.6011573431E-16
   0.2080000000E+01   0.9801913886E+00  -0.9681650018E-17   0.2000000000E-01  -0.4994554951E-02  -0.5777385032E-17   0.6000000000E-01  -0.1481405648E-01  -0.3904264986E-17   0.0000000000E+00   0.0000000000E+00   0.0000000000E+00   0.0000000000E+00   0.0000000000E+00   0.0000000000E+00   0.1148331417E+01   0.1880458922E-10   0.1880470071E-10  -0.1907724190E-16   0.9247167317E-16   0.2737240585E-17
   0.2080000000E+01   0.0000000000E+00   0.9801913886E+00   0.2000000000E-01   0.0000000000E+00  -0.4994554951E-02   0.6000000000E-01   0.0000000000E+00  -0.1481405648E-01   0.0000000000E+00   0.0000000000E+00   0.0000000000E+00   0.0000000000E+00   0.0000000000E+00   0.0000000000E+00   0.1148331417E+01   0.1880445992E-10   0.1880430904E-10   0.1137048436E-16   0.5570234850E-16  -0.2017224881E-16
   0.2080000000E+01   0.9801913886E+00   0.9801913886E+00   0.2000000000E-01  -0.4994554951E-02  -0.4994554951E-02   0.6000000000E-01  -0.1481405648E-01  -0.1481405648E-01   0.0000000000E+00   0.0000000000E+00   0.0000000000E+00   0.0000000000E+00   0.0000000000E+00   0.0000000000E+00   0.1148331417E+01   0.1881530303E-10   0.1881528577E-10   0.1682687554E-16  -0.2569558114E-16   0.5055094432E-16
     1     2     3     4     5     6     7     8
     2     9    10     3     6    11    12     7
 VARIABLES = X,Y,Z,DU1,DU2,DU3,U1,U2,U3,e11,e22,e33,e12,e13,e23,S11,S22,S33,S12,S13,S23
 ZONE, T="0.2500D+00" F=FEPOINT, I=   12 J=    2 ET=BRICK
   0.0000000000E+00   0.0000000000E+00   0.0000000000E+00   0.0000000000E+00   0.0000000000E+00   0.0000000000E+00   0.0000000000E+00   0.0000000000E+00   0.0000000000E+00   0.0000000000E+00   0.0000000000E+00   0.0000000000E+00   0.0000000000E+00   0.0000000000E+00   0.0000000000E+00   0.1174312058E+01   0.3914992936E-11   0.3915009234E-11  -0.1678712118E-17  -0.1065197849E-15  -0.9526036445E-17
   0.1050000000E+01   0.0000000000E+00  -0.3180333078E-17   0.1000000000E-01   0.0000000000E+00   0.2067942807E-18   0.4000000000E-01   0.0000000000E+00  -0.3387127359E-17   0.0000000000E+00   0.0000000000E+00   0.0000000000E+00   0.0000000000E+00   0.0000000000E+00   0.0000000000E+00   0.1174312058E+01   0.3915826101E-11   0.3915758958E-11  -0.2370102948E-17   0.1034843271E-15   0.5631287424E-16
   0.1050000000E+01   0.9751957187E+00   0.3482741940E-17   0.1000000000E-01  -0.4995669893E-02   0.1120584075E-16   0.4000000000E-01  -0.1980861143E-01  -0.7723098809E-17   0.0000000000E+00   0.0000000000E+00   0.0000000000E+00   0.0000000000E+00   0.0000000000E+00   0.0000000000E+00   0.1174312058E+01   0.3911691896E-11   0.3911525824E-11   0.2081038456E-16  -0.1258062753E-15   0.1329625067E-16
   0.0000000000E+00   0.9751957187E+00  -0.1851631661E-18   0.0000000000E+00  -0.4995669893E-02   0.1385335619E-16   0.0000000000E+00  -0.1980861143E-01  -0.1403851935E-16   0.0000000000E+00   0.0000000000E+00   0.0000000000E+00   0.0000000000E+00   0.0000000000E+00   0.0000000000E+00   0.1174312058E+01   0.3915144232E-11   0.3915180101E-11  -0.2084520470E-16   0.9586775922E-16   0.7766858469E-18
   0.0000000000E+00   0.0000000000E+00   0.9751957187E+00   0.0000000000E+00   0.0000000000E+00  -0.4995669893E-02   0.0000000000E+00   0.0000000000E+00  -0.1980861143E-01   0.0000000000E+00   0.0000000000E+00   0.0000000000E+00   0.0000000000E+00   0.0000000000E+00   0.0000000000E+00   0.1174312058E+01   0.3911082846E-11   0.3911096808E-11  -0.1380755561E-16   0.5740814751E-16   0.6088413235E-17
   0.1050000000E+01   0.0000000000E+00   0.9751957187E+00   0.1000000000E-01   0.0000000000E+00  -0.4995669893E-02   0.4000000000E-01   0.0000000000E+00  -0.1980861143E-01   0.0000000000E+00   0.0000000000E+00   0.0000000000E+00   0.0000000000E+00   0.0000000000E+00   0.0000000000E+00   0.1174312058E+01   0.3919754842E-11   0.3919752206E-11   0.6303627479E-16  -0.7790502963E-16  -0.1007076035E-16
   0.1050000000E+01   0.9751957187E+00   0.9751957187E+00   0.1000000000E-01  -0.4995669893E-02  -0.4995669893E-02   0.4000000000E-01  -0.1980861143E-01  -0.1980861143E-01   0.0000000000E+00   0.0000000000E+00   0.0000000000E+00   0.0000000000E+00   0.0000000000E+00   0.0000000000E+00   0.1174312058E+01   0.3905435022E-11   0.3905333348E-11   0.2690310519E-16  -0.1131406183E-16   0.3758159919E-17
   0.0000000000E+00   0.9751957187E+00   0.9751957187E+00   0.0000000000E+00  -0.4995669893E-02  -0.4995669893E-02   0.0000000000E+00  -0.1980861143E-01  -0.1980861143E-01   0.0000000000E+00   0.0000000000E+00   0.0000000000E+00   0.0000000000E+00   0.0000000000E+00   0.0000000000E+00   0.1174312058E+01   0.3916378757E-11   0.3916412321E-11   0.1115412062E-16  -0.8949317476E-17  -0.2012342056E-16
   0.2100000000E+01   0.0000000000E+00  -0.4452999637E-17   0.2000000000E-01   0.0000000000E+00  -0.7611788323E-18   0.8000000000E-01   0.0000000000E+00  -0.3691820805E-17   0.0000000000E+00   0.0000000000E+00   0.0000000000E+00   0.0000000000E+00   0.0000000000E+00   0.0000000000E+00   0.1174312058E+01   0.3895641176E-11   0.3895610304E-11   0.1143166375E-16  -0.5483466418E-16  -0.6404877361E-16
   0.2100000000E+01   0.9751957187E+00  -0.1190991562E-16   0.2000000000E-01  -0.4995669893E-02  -0.2228265605E-17   0.8000000000E-01  -0.1980861143E-01  -0.9681650018E-17   0.0000000000E+00   0.0000000000E+00   0.0000000000E+00   0.0000000000E+00   0.0000000000E+00   0.0000000000E+00   0.1174312058E+01   0.3918342980E-11   0.3918584789E-11  -0.3751667928E-16   0.1341420500E-15  -0.2499276972E-16
   0.2100000000E+01   0.0000000000E+00   0.9751957187E+00   0.2000000000E-01   0.0000000000E+00  -0.4995669893E-02   0.8000000000E-01   0.0000000000E+00  -0.1980861143E-01   0.0000000000E+00   0.0000000000E+00   0.0000000000E+00   0.0000000000E+00   0.0000000000E+00   0.0000000000E+00   0.1174312058E+01   0.3918040467E-11   0.3917977361E-11   0.1692004377E-16  -0.1753692830E-16  -0.3639711392E-17
   0.2100000000E+01   0.9751957187E+00   0.9751957187E+00   0.2000000000E-01  -0.4995669893E-02  -0.4995669893E-02   0.8000000000E-01  -0.1980861143E-01  -0.1980861143E-01   0.0000000000E+00   0.0000000000E+00   0.0000000000E+00   0.0000000000E+00   0.0000000000E+00   0.0000000000E+00   0.1174312058E+01   0.3914943193E-11   0.3915152798E-11   0.5395394057E-16   0.9669409728E-16   0.1003270839E-17
     1     2     3     4     5     6     7     8
     2     9    10     3     6    11    12     7
 VARIABLES = X,Y,Z,DU1,DU2,DU3,U1,U2,U3,e11,e22,e33,e12,e13,e23,S11,S22,S33,S12,S13,S23
 ZONE, T="0.3000D+00" F=FEPOINT, I=   12 J=    2 ET=BRICK
   0.0000000000E+00   0.0000000000E+00   0.0000000000E+00   0.0000000000E+00   0.0000000000E+00   0.0000000000E+00   0.0000000000E+00   0.0000000000E+00   0.0000000000E+00   0.0000000000E+00   0.0000000000E+00   0.0000000000E+00   0.0000000000E+00   0.0000000000E+00   0.0000000000E+00   0.1195966001E+01   0.1153591107E-11   0.1153575322E-11  -0.2904519569E-16   0.3957824758E-16  -0.2072852851E-17
   0.1060000000E+01   0.0000000000E+00   0.8851801331E-17   0.1000000000E-01   0.0000000000E+00   0.1203213441E-16   0.5000000000E-01   0.0000000000E+00  -0.3180333078E-17   0.0000000000E+00   0.0000000000E+00   0.0000000000E+00   0.0000000000E+00   0.0000000000E+00   0.0000000000E+00   0.1195966001E+01   0.1150443518E-11   0.1150435067E-11   0.7304260389E-16   0.3904617274E-16  -0.6640187650E-16
   0.1060000000E+01   0.9701993277E+00   0.3287188283E-18   0.1000000000E-01  -0.4996391010E-02  -0.3154023112E-17   0.5000000000E-01  -0.2480428132E-01   0.3482741940E-17   0.0000000000E+00   0.0000000000E+00   0.0000000000E+00   0.0000000000E+00   0.0000000000E+00   0.0000000000E+00   0.1195966001E+01   0.1161556889E-11   0.1161668474E-11   0.2551322956E-16  -0.1693459349E-15  -0.1571215487E-16
   0.0000000000E+00   0.9701993277E+00  -0.2215869494E-17   0.0000000000E+00  -0.4996391010E-02  -0.2030706327E-17   0.0000000000E+00  -0.2480428132E-01  -0.1851631661E-18   0.0000000000E+00   0.0000000000E+00   0.0000000000E+00   0.0000000000E+00   0.0000000000E+00   0.0000000000E+00   0.1195966001E+01   0.1156918954E-11   0.1156963218E-11  -0.4021502485E-16   0.3020298359E-16  -0.8133503334E-16
   0.0000000000E+00   0.0000000000E+00   0.9701993277E+00   0.0000000000E+00   0.0000000000E+00  -0.4996391010E-02   0.0000000000E+00   0.0000000000E+00  -0.2480428132E-01   0.0000000000E+00   0.0000000000E+00   0.0000000000E+00   0.0000000000E+00   0.0000000000E+00   0.0000000000E+00   0.1195966001E+01   0.1151392285E-11   0.1151391153E-11  -0.2488170858E-16   0.6230993766E-16   0.2244354568E-16
   0.1060000000E+01   0.0000000000E+00   0.9701993277E+00   0.1000000000E-01   0.0000000000E+00  -0.4996391010E-02   0.5000000000E-01   0.0000000000E+00  -0.2480428132E-01   0.0000000000E+00   0.0000000000E+00   0.0000000000E+00   0.0000000000E+00   0.0000000000E+00   0.0000000000E+00   0.1195966001E+01   0.1158632305E-11   0.1158543801E-11  -0.9231136626E-17   0.5278469361E-16  -0.3299525878E-16
   0.1060000000E+01   0.9701993277E+00   0.9701993277E+00   0.1000000000E-01  -0.4996391010E-02  -0.4996391010E-02   0.5000000000E-01  -0.2480428132E-01  -0.2480428132E-01   0.0000000000E+00   0.0000000000E+00   0.0000000000E+00   0.0000000000E+00   0.0000000000E+00   0.0000000000E+00   0.1195966000E+01   0.1159432032E-11   0.1159463603E-11  -0.1691680615E-16  -0.1362528650E-15   0.6832404233E-16
   0.0000000000E+00   0.9701993277E+00   0.9701993277E+00   0.0000000000E+00  -0.4996391010E-02  -0.4996391010E-02   0.0000000000E+00  -0.2480428132E-01  -0.2480428132E-01   0.0000000000E+00   0.0000000000E+00   0.0000000000E+00   0.0000000000E+00   0.0000000000E+00   0.0000000000E+00   0.1195966001E+01   0.1159920901E-11   0.1159979799E-11   0.3914991384E-16   0.7707918360E-16   0.8381551469E-17
   0.2120000000E+01   0.0000000000E+00   0.1010361505E-16   0.2000000000E-01   0.0000000000E+00   0.1455661469E-16   0.1000000000E+00   0.0000000000E+00  -0.4452999637E-17   0.0000000000E+00   0.0000000000E+00   0.0000000000E+00   0.0000000000E+00   0.0000000000E+00   0.0000000000E+00   0.1195966001E+01   0.1147285205E-11   0.1147284089E-11   0.1615712963E-16   0.1102205184E-15   0.1631246330E-16
   0.2120000000E+01   0.9701993277E+00   0.7567176218E-17   0.2000000000E-01  -0.4996391010E-02   0.1947709184E-16   0.1000000000E+00  -0.2480428132E-01  -0.1190991562E-16   0.0000000000E+00   0.0000000000E+00   0.0000000000E+00   0.0000000000E+00   0.0000000000E+00   0.0000000000E+00   0.1195966001E+01   0.1166234847E-11   0.1166413753E-11  -0.4639893334E-16  -0.7750595212E-16   0.7981101489E-17
   0.2120000000E+01   0.0000000000E+00   0.9701993277E+00   0.2000000000E-01   0.0000000000E+00  -0.4996391010E-02   0.1000000000E+00   0.0000000000E+00  -0.2480428132E-01   0.0000000000E+00   0.0000000000E+00   0.0000000000E+00   0.0000000000E+00   0.0000000000E+00   0.0000000000E+00   0.1195966001E+01   0.1165912349E-11   0.1165736471E-11  -0.2725722873E-16   0.7595710402E-17   0.7184651866E-17
   0.2120000000E+01   0.9701993277E+00   0.9701993277E+00   0.2000000000E-01  -0.4996391010E-02  -0.4996391010E-02   0.1000000000E+00  -0.2480428132E-01  -0.2480428132E-01   0.0000000000E+00   0.0000000000E+00   0.0000000000E+00   0.0000000000E+00   0.0000000000E+00   0.0000000000E+00   0.1195966000E+01   0.1158793796E-11   0.1158798041E-11   0.8459379471E-17   0.9140942213E-16   0.1399533815E-15
     1     2     3     4     5     6     7     8
     2     9    10     3     6    11    12     7
 VARIABLES = X,Y,Z,DU1,DU2,DU3,U1,U2,U3,e11,e22,e33,e12,e13,e23,S11,S22,S33,S12,S13,S23
 ZONE, T="0.3500D+00" F=FEPOINT, I=   12 J=    2 ET=BRICK
   0.0000000000E+00   0.0000000000E+00   0.0000000000E+00   0.0000000000E+00   0.0000000000E+00   0.0000000000E+00   0.0000000000E+00   0.0000000000E+00   0.0000000000E+00   0.0000000000E+00   0.0000000000E+00   0.0000000000E+00   0.0000000000E+00   0.0000000000E+00   0.0000000000E+00   0.1214579638E+01   0.4400507456E-12   0.4400534392E-12  -0.5881977891E-17   0.6346991728E-16   0.9371995487E-16
   0.1070000000E+01   0.0000000000E+00   0.7633796976E-17   0.1000000000E-01   0.0000000000E+00  -0.1218004356E-17   0.6000000000E-01   0.0000000000E+00   0.8851801331E-17   0.0000000000E+00   0.0000000000E+00   0.0000000000E+00   0.0000000000E+00   0.0000000000E+00   0.0000000000E+00   0.1214579638E+01   0.4191928934E-12   0.4191875063E-12   0.1875546774E-16   0.4510891029E-16  -0.4660675964E-17
   0.1070000000E+01   0.9652024299E+00   0.5844764130E-17   0.1000000000E-01  -0.4996897727E-02   0.5516045302E-17   0.6000000000E-01  -0.2980067233E-01   0.3287188283E-18   0.0000000000E+00   0.0000000000E+00   0.0000000000E+00   0.0000000000E+00   0.0000000000E+00   0.0000000000E+00   0.1214579638E+01   0.4333761268E-12   0.4333962320E-12   0.3298563599E-16  -0.6001782419E-16  -0.5663639274E-16
   0.0000000000E+00   0.9652024299E+00   0.1544609436E-16   0.0000000000E+00  -0.4996897727E-02   0.1766196385E-16   0.0000000000E+00  -0.2980067233E-01  -0.2215869494E-17   0.0000000000E+00   0.0000000000E+00   0.0000000000E+00   0.0000000000E+00   0.0000000000E+00   0.0000000000E+00   0.1214579638E+01   0.4189661730E-12   0.4187913354E-12  -0.3287373677E-16  -0.8802158085E-16   0.5308510267E-16
   0.0000000000E+00   0.0000000000E+00   0.9652024299E+00   0.0000000000E+00   0.0000000000E+00  -0.4996897727E-02   0.0000000000E+00   0.0000000000E+00  -0.2980067233E-01   0.0000000000E+00   0.0000000000E+00   0.0000000000E+00   0.0000000000E+00   0.0000000000E+00   0.0000000000E+00   0.1214579638E+01   0.4259104160E-12   0.4260778946E-12  -0.5619662129E-17  -0.9834879391E-16  -0.3459938296E-16
   0.1070000000E+01   0.0000000000E+00   0.9652024299E+00   0.1000000000E-01   0.0000000000E+00  -0.4996897727E-02   0.6000000000E-01   0.0000000000E+00  -0.2980067233E-01   0.0000000000E+00   0.0000000000E+00   0.0000000000E+00   0.0000000000E+00   0.0000000000E+00   0.0000000000E+00   0.1214579638E+01   0.4191580702E-12   0.4191526830E-12  -0.4571862594E-16   0.9537537817E-16   0.6239336758E-16
   0.1070000000E+01   0.9652024299E+00   0.9652024299E+00   0.1000000000E-01  -0.4996897727E-02  -0.4996897727E-02   0.6000000000E-01  -0.2980067233E-01  -0.2980067233E-01   0.0000000000E+00   0.0000000000E+00   0.0000000000E+00   0.0000000000E+00   0.0000000000E+00   0.0000000000E+00   0.1214579638E+01   0.4333854576E-12   0.4334055628E-12  -0.1893473011E-16  -0.6634479955E-16   0.9599877753E-16
   0.0000000000E+00   0.9652024299E+00   0.9652024299E+00   0.0000000000E+00  -0.4996897727E-02  -0.4996897727E-02   0.0000000000E+00  -0.2980067233E-01  -0.2980067233E-01   0.0000000000E+00   0.0000000000E+00   0.0000000000E+00   0.0000000000E+00   0.0000000000E+00   0.0000000000E+00   0.1214579638E+01   0.4045183503E-12   0.4045082977E-12   0.7716340523E-16   0.1018994910E-15  -0.2072803172E-15
   0.2140000000E+01   0.0000000000E+00   0.2339675720E-17   0.2000000000E-01   0.0000000000E+00  -0.7763939333E-17   0.1200000000E+00   0.0000000000E+00   0.1010361505E-16   0.0000000000E+00   0.0000000000E+00   0.0000000000E+00   0.0000000000E+00   0.0000000000E+00   0.0000000000E+00   0.1214579638E+01   0.4026134916E-12   0.4026510084E-12  -0.3363070209E-16  -0.1664123513E-15   0.5277093971E-16
   0.2140000000E+01   0.9652024299E+00   0.1092970507E-16   0.2000000000E-01  -0.4996897727E-02   0.3362528851E-17   0.1200000000E+00  -0.2980067233E-01   0.7567176218E-17   0.0000000000E+00   0.0000000000E+00   0.0000000000E+00   0.0000000000E+00   0.0000000000E+00   0.0000000000E+00   0.1214579638E+01   0.4315774224E-12   0.4316021929E-12   0.1257869663E-16   0.1718549915E-15   0.2537879355E-16
   0.2140000000E+01   0.0000000000E+00   0.9652024299E+00   0.2000000000E-01   0.0000000000E+00  -0.4996897727E-02   0.1200000000E+00   0.0000000000E+00  -0.2980067233E-01   0.0000000000E+00   0.0000000000E+00   0.0000000000E+00   0.0000000000E+00   0.0000000000E+00   0.0000000000E+00   0.1214579638E+01   0.4170137449E-12   0.4168864766E-12  -0.1941124294E-16  -0.1177220264E-15  -0.1194619016E-15
   0.2140000000E+01   0.9652024299E+00   0.9652024299E+00   0.2000000000E-01  -0.4996897727E-02  -0.4996897727E-02   0.1200000000E+00  -0.2980067233E-01  -0.2980067233E-01   0.0000000000E+00   0.0000000000E+00   0.0000000000E+00   0.0000000000E+00   0.0000000000E+00   0.0000000000E+00   0.1214579638E+01   0.4459555986E-12   0.4458155842E-12  -0.3420049097E-16   0.5759892285E-16  -0.4931876514E-16
     1     2     3     4     5     6     7     8
     2     9    10     3     6    11    12     7
 VARIABLES = X,Y,Z,DU1,DU2,DU3,U1,U2,U3,e11,e22,e33,e12,e13,e23,S11,S22,S33,S12,S13,S23
 ZONE, T="0.4000D+00" F=FEPOINT, I=   12 J=    2 ET=BRICK
   0.0000000000E+00   0.0000000000E+00   0.0000000000E+00   0.0000000000E+00   0.0000000000E+00   0.0000000000E+00   0.0000000000E+00   0.0000000000E+00   0.0000000000E+00   0.0000000000E+00   0.0000000000E+00   0.0000000000E+00   0.0000000000E+00   0.0000000000E+00   0.0000000000E+00   0.1230933773E+01   0.2046532826E-12   0.2046567821E-12   0.8100182750E-17  -0.1273872637E-16  -0.1455459213E-16
   0.1080000000E+01   0.0000000000E+00  -0.4347005307E-17   0.1000000000E-01   0.0000000000E+00  -0.1198080228E-16   0.7000000000E-01   0.0000000000E+00   0.7633796976E-17   0.0000000000E+00   0.0000000000E+00   0.0000000000E+00   0.0000000000E+00   0.0000000000E+00   0.0000000000E+00   0.1230933773E+01   0.1823212471E-12   0.1825160740E-12  -0.1197605380E-15  -0.1105349618E-15   0.7457868545E-17
   0.1080000000E+01   0.9602051556E+00  -0.2209445875E-17   0.1000000000E-01  -0.4997274311E-02  -0.8054210005E-17   0.7000000000E-01  -0.3479757006E-01   0.5844764130E-17   0.0000000000E+00   0.0000000000E+00   0.0000000000E+00   0.0000000000E+00   0.0000000000E+00   0.0000000000E+00   0.1230933773E+01   0.1600096181E-12   0.1601426920E-12  -0.1176489319E-15   0.2027094801E-15   0.1073600716E-15
   0.0000000000E+00   0.9602051556E+00   0.2530468200E-17   0.0000000000E+00  -0.4997274311E-02  -0.1291562616E-16   0.0000000000E+00  -0.3479757006E-01   0.1544609436E-16   0.0000000000E+00   0.0000000000E+00   0.0000000000E+00   0.0000000000E+00   0.0000000000E+00   0.0000000000E+00   0.1230933773E+01   0.1496563148E-12   0.1496515370E-12  -0.5572832549E-16  -0.5144616537E-16   0.6265890275E-16
   0.0000000000E+00   0.0000000000E+00   0.9602051556E+00   0.0000000000E+00   0.0000000000E+00  -0.4997274311E-02   0.0000000000E+00   0.0000000000E+00  -0.3479757006E-01   0.0000000000E+00   0.0000000000E+00   0.0000000000E+00   0.0000000000E+00   0.0000000000E+00   0.0000000000E+00   0.1230933773E+01   0.1552193124E-12   0.1551136131E-12   0.9830216317E-17  -0.7396424503E-16  -0.4899752769E-16
   0.1080000000E+01   0.0000000000E+00   0.9602051556E+00   0.1000000000E-01   0.0000000000E+00  -0.4997274311E-02   0.7000000000E-01   0.0000000000E+00  -0.3479757006E-01   0.0000000000E+00   0.0000000000E+00   0.0000000000E+00   0.0000000000E+00   0.0000000000E+00   0.0000000000E+00   0.1230933773E+01   0.2005485946E-12   0.2005129565E-12   0.1672435589E-15  -0.9024685800E-16   0.8017719483E-16
   0.1080000000E+01   0.9602051556E+00   0.9602051556E+00   0.1000000000E-01  -0.4997274311E-02  -0.4997274311E-02   0.7000000000E-01  -0.3479757006E-01  -0.3479757006E-01   0.0000000000E+00   0.0000000000E+00   0.0000000000E+00   0.0000000000E+00   0.0000000000E+00   0.0000000000E+00   0.1230933773E+01   0.1989076057E-12   0.1988101848E-12   0.1323229143E-15   0.3039947497E-16  -0.9250817807E-16
   0.0000000000E+00   0.9602051556E+00   0.9602051556E+00   0.0000000000E+00  -0.4997274311E-02  -0.4997274311E-02   0.0000000000E+00  -0.3479757006E-01  -0.3479757006E-01   0.0000000000E+00   0.0000000000E+00   0.0000000000E+00   0.0000000000E+00   0.0000000000E+00   0.0000000000E+00   0.1230933773E+01   0.2144661847E-12   0.2143522230E-12   0.2516777465E-16   0.9247113157E-16   0.1212906735E-15
   0.2160000000E+01   0.0000000000E+00  -0.5522745370E-17   0.2000000000E-01   0.0000000000E+00  -0.7862421091E-17   0.1400000000E+00   0.0000000000E+00   0.2339675720E-17   0.0000000000E+00   0.0000000000E+00   0.0000000000E+00   0.0000000000E+00   0.0000000000E+00   0.0000000000E+00   0.1230933773E+01   0.1691865389E-12   0.1692352814E-12  -0.2598832620E-16  -0.1350317449E-15   0.2577919791E-16
   0.2160000000E+01   0.9602051556E+00  -0.9092240628E-18   0.2000000000E-01  -0.4997274311E-02  -0.1183892913E-16   0.1400000000E+00  -0.3479757006E-01   0.1092970507E-16   0.0000000000E+00   0.0000000000E+00   0.0000000000E+00   0.0000000000E+00   0.0000000000E+00   0.0000000000E+00   0.1230933773E+01   0.1792680903E-12   0.1792015447E-12   0.6688674036E-16   0.2095973736E-15  -0.8305920526E-16
   0.2160000000E+01   0.0000000000E+00   0.9602051556E+00   0.2000000000E-01   0.0000000000E+00  -0.4997274311E-02   0.1400000000E+00   0.0000000000E+00  -0.3479757006E-01   0.0000000000E+00   0.0000000000E+00   0.0000000000E+00   0.0000000000E+00   0.0000000000E+00   0.0000000000E+00   0.1230933773E+01   0.2129359109E-12   0.2130605804E-12  -0.2045020977E-16  -0.1515961772E-15  -0.1948308473E-15
   0.2160000000E+01   0.9602051556E+00   0.9602051556E+00   0.2000000000E-01  -0.4997274311E-02  -0.4997274311E-02   0.1400000000E+00  -0.3479757006E-01  -0.3479757006E-01   0.0000000000E+00   0.0000000000E+00   0.0000000000E+00   0.0000000000E+00   0.0000000000E+00   0.0000000000E+00   0.1230933773E+01   0.1504850350E-12   0.1504946238E-12  -0.9744851370E-16   0.6000918396E-16  -0.7215176386E-16
     1     2     3     4     5     6     7     8
     2     9    10     3     6    11    12     7
 VARIABLES = X,Y,Z,DU1,DU2,DU3,U1,U2,U3,e11,e22,e33,e12,e13,e23,S11,S22,S33,S12,S13,S23
 ZONE, T="0.4500D+00" F=FEPOINT, I=   12 J=    2 ET=BRICK
   0.0000000000E+00   0.0000000000E+00   0.0000000000E+00   0.0000000000E+00   0.0000000000E+00   0.0000000000E+00   0.0000000000E+00   0.0000000000E+00   0.0000000000E+00   0.0000000000E+00   0.0000000000E+00   0.0000000000E+00   0.0000000000E+00   0.0000000000E+00   0.0000000000E+00   0.1245539252E+01   0.7307438109E-13   0.7302846568E-13  -0.1749925077E-16  -0.8800745136E-16  -0.1250778855E-15
   0.1090000000E+01   0.0000000000E+00  -0.1597139670E-16   0.1000000000E-01   0.0000000000E+00  -0.1162439139E-16   0.8000000000E-01   0.0000000000E+00  -0.4347005307E-17   0.0000000000E+00   0.0000000000E+00   0.0000000000E+00   0.0000000000E+00   0.0000000000E+00   0.0000000000E+00   0.1245539252E+01   0.9620353870E-13   0.9608821597E-13   0.3464740204E-15   0.1134360295E-15   0.3482286662E-16
   0.1090000000E+01   0.9552075899E+00  -0.7205298179E-17   0.1000000000E-01  -0.4997565753E-02  -0.4995852304E-17   0.8000000000E-01  -0.3979484437E-01  -0.2209445875E-17   0.0000000000E+00   0.0000000000E+00   0.0000000000E+00   0.0000000000E+00   0.0000000000E+00   0.0000000000E+00   0.1245539252E+01   0.9776564084E-13   0.9770582473E-13   0.4490632515E-15  -0.1503917509E-15  -0.6629239832E-16
   0.0000000000E+00   0.9552075899E+00  -0.2586369631E-16   0.0000000000E+00  -0.4997565753E-02  -0.2839416451E-16   0.0000000000E+00  -0.3979484437E-01   0.2530468200E-17   0.0000000000E+00   0.0000000000E+00   0.0000000000E+00   0.0000000000E+00   0.0000000000E+00   0.0000000000E+00   0.1245539252E+01   0.9010648042E-13   0.9019933701E-13   0.5119527919E-16   0.1373792138E-15   0.7361464528E-16
   0.0000000000E+00   0.0000000000E+00   0.9552075899E+00   0.0000000000E+00   0.0000000000E+00  -0.4997565753E-02   0.0000000000E+00   0.0000000000E+00  -0.3979484437E-01   0.0000000000E+00   0.0000000000E+00   0.0000000000E+00   0.0000000000E+00   0.0000000000E+00   0.0000000000E+00   0.1245539252E+01   0.9657696168E-13   0.9633394909E-13   0.7721831144E-17  -0.9452951167E-16  -0.4780470362E-16
   0.1090000000E+01   0.0000000000E+00   0.9552075899E+00   0.1000000000E-01   0.0000000000E+00  -0.4997565753E-02   0.8000000000E-01   0.0000000000E+00  -0.3979484437E-01   0.0000000000E+00   0.0000000000E+00   0.0000000000E+00   0.0000000000E+00   0.0000000000E+00   0.0000000000E+00   0.1245539252E+01   0.7753833489E-13   0.7755435398E-13  -0.6587638524E-16   0.9334169804E-16   0.8903813950E-16
   0.1090000000E+01   0.9552075899E+00   0.9552075899E+00   0.1000000000E-01  -0.4997565753E-02  -0.4997565753E-02   0.8000000000E-01  -0.3979484437E-01  -0.3979484437E-01   0.0000000000E+00   0.0000000000E+00   0.0000000000E+00   0.0000000000E+00   0.0000000000E+00   0.0000000000E+00   0.1245539252E+01   0.9988190555E-13   0.9995347191E-13  -0.1849362239E-15  -0.7378411470E-16   0.5258097004E-17
   0.0000000000E+00   0.9552075899E+00   0.9552075899E+00   0.0000000000E+00  -0.4997565753E-02  -0.4997565753E-02   0.0000000000E+00  -0.3979484437E-01  -0.3979484437E-01   0.0000000000E+00   0.0000000000E+00   0.0000000000E+00   0.0000000000E+00   0.0000000000E+00   0.0000000000E+00   0.1245539252E+01   0.1034458328E-12   0.1033416680E-12  -0.1046308176E-15   0.6488478573E-16   0.8406277061E-16
   0.2180000000E+01   0.0000000000E+00  -0.3374356763E-16   0.2000000000E-01   0.0000000000E+00  -0.2822082226E-16   0.1600000000E+00   0.0000000000E+00  -0.5522745370E-17   0.0000000000E+00   0.0000000000E+00   0.0000000000E+00   0.0000000000E+00   0.0000000000E+00   0.0000000000E+00   0.1245539252E+01   0.1028189673E-12   0.1027859077E-12  -0.3851172593E-16  -0.2818463327E-15   0.8469389025E-16
   0.2180000000E+01   0.9552075899E+00  -0.1433058819E-16   0.2000000000E-01  -0.4997565753E-02  -0.1342136412E-16   0.1600000000E+00  -0.3979484437E-01  -0.9092240628E-18   0.0000000000E+00   0.0000000000E+00   0.0000000000E+00   0.0000000000E+00   0.0000000000E+00   0.0000000000E+00   0.1245539252E+01   0.8884065207E-13   0.8877983365E-13   0.5760744236E-17   0.2781406778E-15  -0.1245189241E-15
   0.2180000000E+01   0.0000000000E+00   0.9552075899E+00   0.2000000000E-01   0.0000000000E+00  -0.4997565753E-02   0.1600000000E+00   0.0000000000E+00  -0.3979484437E-01   0.0000000000E+00   0.0000000000E+00   0.0000000000E+00   0.0000000000E+00   0.0000000000E+00   0.0000000000E+00   0.1245539252E+01   0.6273215623E-13   0.6296656703E-13  -0.6094787074E-16  -0.1596190781E-15   0.9341686697E-16
   0.2180000000E+01   0.9552075899E+00   0.9552075899E+00   0.2000000000E-01  -0.4997565753E-02  -0.4997565753E-02   0.1600000000E+00  -0.3979484437E-01  -0.3979484437E-01   0.0000000000E+00   0.0000000000E+00   0.0000000000E+00   0.0000000000E+00   0.0000000000E+00   0.0000000000E+00   0.1245539252E+01   0.1008132383E-12   0.1010198958E-12   0.1519900771E-16   0.2029389052E-15  -0.1659181694E-15
     1     2     3     4     5     6     7     8
     2     9    10     3     6    11    12     7
 VARIABLES = X,Y,Z,DU1,DU2,DU3,U1,U2,U3,e11,e22,e33,e12,e13,e23,S11,S22,S33,S12,S13,S23
 ZONE, T="0.5000D+00" F=FEPOINT, I=   12 J=    2 ET=BRICK
   0.0000000000E+00   0.0000000000E+00   0.0000000000E+00   0.0000000000E+00   0.0000000000E+00   0.0000000000E+00   0.0000000000E+00   0.0000000000E+00   0.0000000000E+00   0.0000000000E+00   0.0000000000E+00   0.0000000000E+00   0.0000000000E+00   0.0000000000E+00   0.0000000000E+00   0.1258749228E+01   0.5809915492E-13   0.5812244162E-13  -0.1986281400E-16  -0.2843735831E-16  -0.4343261631E-17
   0.1100000000E+01   0.0000000000E+00  -0.9444277378E-17   0.1000000000E-01   0.0000000000E+00   0.6527119320E-17   0.9000000000E-01   0.0000000000E+00  -0.1597139670E-16   0.0000000000E+00   0.0000000000E+00   0.0000000000E+00   0.0000000000E+00   0.0000000000E+00   0.0000000000E+00   0.1258749228E+01   0.5439388565E-13   0.5449882615E-13   0.2495316122E-15   0.5641345252E-16   0.4844464742E-16
   0.1100000000E+01   0.9502097915E+00   0.7010264108E-18   0.1000000000E-01  -0.4997798337E-02   0.7906324590E-17   0.9000000000E-01  -0.4479241012E-01  -0.7205298179E-17   0.0000000000E+00   0.0000000000E+00   0.0000000000E+00   0.0000000000E+00   0.0000000000E+00   0.0000000000E+00   0.1258749228E+01   0.3584576465E-13   0.3583117287E-13   0.1789865713E-15  -0.1156186493E-15   0.7753692690E-17
   0.0000000000E+00   0.9502097915E+00  -0.9130151445E-17   0.0000000000E+00  -0.4997798337E-02   0.1673354487E-16   0.0000000000E+00  -0.4479241012E-01  -0.2586369631E-16   0.0000000000E+00   0.0000000000E+00   0.0000000000E+00   0.0000000000E+00   0.0000000000E+00   0.0000000000E+00   0.1258749228E+01   0.3635513729E-13   0.3628672003E-13   0.6833278466E-16   0.8164540308E-16   0.1449977459E-16
   0.0000000000E+00   0.0000000000E+00   0.9502097915E+00   0.0000000000E+00   0.0000000000E+00  -0.4997798337E-02   0.0000000000E+00   0.0000000000E+00  -0.4479241012E-01   0.0000000000E+00   0.0000000000E+00   0.0000000000E+00   0.0000000000E+00   0.0000000000E+00   0.0000000000E+00   0.1258749228E+01   0.3144570562E-13   0.3134949368E-13   0.4882294074E-16  -0.1416899340E-15  -0.1525687903E-15
   0.1100000000E+01   0.0000000000E+00   0.9502097915E+00   0.1000000000E-01   0.0000000000E+00  -0.4997798337E-02   0.9000000000E-01   0.0000000000E+00  -0.4479241012E-01   0.0000000000E+00   0.0000000000E+00   0.0000000000E+00   0.0000000000E+00   0.0000000000E+00   0.0000000000E+00   0.1258749228E+01   0.3804530533E-13   0.3815024268E-13  -0.1271822443E-15   0.1795334725E-15   0.4461703301E-16
   0.1100000000E+01   0.9502097915E+00   0.9502097915E+00   0.1000000000E-01  -0.4997798337E-02  -0.4997798337E-02   0.9000000000E-01  -0.4479241012E-01  -0.4479241012E-01   0.0000000000E+00   0.0000000000E+00   0.0000000000E+00   0.0000000000E+00   0.0000000000E+00   0.0000000000E+00   0.1258749228E+01   0.4022635297E-13   0.4021177293E-13  -0.5159732779E-16  -0.5373869750E-16  -0.2319368025E-16
   0.0000000000E+00   0.9502097915E+00   0.9502097915E+00   0.0000000000E+00  -0.4997798337E-02  -0.4997798337E-02   0.0000000000E+00  -0.4479241012E-01  -0.4479241012E-01   0.0000000000E+00   0.0000000000E+00   0.0000000000E+00   0.0000000000E+00   0.0000000000E+00   0.0000000000E+00   0.1258749228E+01   0.6152474999E-13   0.6133673045E-13  -0.6895844104E-16   0.8068727590E-16   0.7362199477E-16
   0.2200000000E+01   0.0000000000E+00  -0.1222216607E-17   0.2000000000E-01   0.0000000000E+00   0.3252135102E-16   0.1800000000E+00   0.0000000000E+00  -0.3374356763E-16   0.0000000000E+00   0.0000000000E+00   0.0000000000E+00   0.0000000000E+00   0.0000000000E+00   0.0000000000E+00   0.1258749228E+01   0.4639065327E-13   0.4633818302E-13  -0.3534955106E-16  -0.2815310452E-15   0.1138560854E-16
   0.2200000000E+01   0.9502097915E+00  -0.6578300533E-18   0.2000000000E-01  -0.4997798337E-02   0.1367275813E-16   0.1800000000E+00  -0.4479241012E-01  -0.1433058819E-16   0.0000000000E+00   0.0000000000E+00   0.0000000000E+00   0.0000000000E+00   0.0000000000E+00   0.0000000000E+00   0.1258749228E+01   0.5185499644E-13   0.5183026690E-13  -0.2592123195E-16   0.1841180652E-15  -0.3477185329E-16
   0.2200000000E+01   0.0000000000E+00   0.9502097915E+00   0.2000000000E-01   0.0000000000E+00  -0.4997798337E-02   0.1800000000E+00   0.0000000000E+00  -0.4479241012E-01   0.0000000000E+00   0.0000000000E+00   0.0000000000E+00   0.0000000000E+00   0.0000000000E+00   0.0000000000E+00   0.1258749228E+01   0.4034683085E-13   0.4041388272E-13   0.3860956043E-16  -0.6686259032E-16  -0.4726410460E-16
   0.2200000000E+01   0.9502097915E+00   0.9502097915E+00   0.2000000000E-01  -0.4997798337E-02  -0.4997798337E-02   0.1800000000E+00  -0.4479241012E-01  -0.4479241012E-01   0.0000000000E+00   0.0000000000E+00   0.0000000000E+00   0.0000000000E+00   0.0000000000E+00   0.0000000000E+00   0.1258749228E+01   0.3544659015E-13   0.3554137528E-13   0.3912214142E-16   0.8944807065E-16  -0.3367408343E-16
     1     2     3     4     5     6     7     8
     2     9    10     3     6    11    12     7
 VARIABLES = X,Y,Z,DU1,DU2,DU3,U1,U2,U3,e11,e22,e33,e12,e13,e23,S11,S22,S33,S12,S13,S23
 ZONE, T="0.5500D+00" F=FEPOINT, I=   12 J=    2 ET=BRICK
   0.0000000000E+00   0.0000000000E+00   0.0000000000E+00   0.0000000000E+00   0.0000000000E+00   0.0000000000E+00   0.0000000000E+00   0.0000000000E+00   0.0000000000E+00   0.0000000000E+00   0.0000000000E+00   0.0000000000E+00   0.0000000000E+00   0.0000000000E+00   0.0000000000E+00   0.1245539252E+01   0.1346854521E-12   0.1349182776E-12  -0.1693230041E-16   0.2000785276E-16  -0.5822989547E-16
   0.1090000000E+01   0.0000000000E+00   0.5078714652E-17  -0.1000000000E-01   0.0000000000E+00   0.1452299203E-16   0.1000000000E+00   0.0000000000E+00  -0.9444277378E-17   0.0000000000E+00   0.0000000000E+00   0.0000000000E+00   0.0000000000E+00   0.0000000000E+00   0.0000000000E+00   0.1245539252E+01   0.1274023912E-12   0.1273105099E-12   0.4641083718E-16  -0.5710391399E-16   0.5267111651E-16
   0.1090000000E+01   0.9552075899E+00   0.1147905399E-16  -0.1000000000E-01   0.4997798337E-02   0.1077802758E-16   0.1000000000E+00  -0.4979020846E-01   0.7010264108E-18   0.0000000000E+00   0.0000000000E+00   0.0000000000E+00   0.0000000000E+00   0.0000000000E+00   0.0000000000E+00   0.1245539252E+01   0.1400306233E-12   0.1399035083E-12   0.1014258311E-15  -0.5486353621E-16  -0.9960197499E-16
   0.0000000000E+00   0.9552075899E+00  -0.1135968440E-16   0.0000000000E+00   0.4997798337E-02  -0.2229532957E-17   0.0000000000E+00  -0.4979020846E-01  -0.9130151445E-17   0.0000000000E+00   0.0000000000E+00   0.0000000000E+00   0.0000000000E+00   0.0000000000E+00   0.0000000000E+00   0.1245539252E+01   0.1143327077E-12   0.1144518199E-12   0.9695911066E-16   0.8677854344E-16  -0.2802908610E-16
   0.0000000000E+00   0.0000000000E+00   0.9552075899E+00   0.0000000000E+00   0.0000000000E+00   0.4997798337E-02   0.0000000000E+00   0.0000000000E+00  -0.4979020846E-01   0.0000000000E+00   0.0000000000E+00   0.0000000000E+00   0.0000000000E+00   0.0000000000E+00   0.0000000000E+00   0.1245539252E+01   0.1491384477E-12   0.1491641036E-12   0.9523201771E-18   0.3466875918E-18   0.4864606240E-16
   0.1090000000E+01   0.0000000000E+00   0.9552075899E+00  -0.1000000000E-01   0.0000000000E+00   0.4997798337E-02   0.1000000000E+00   0.0000000000E+00  -0.4979020846E-01   0.0000000000E+00   0.0000000000E+00   0.0000000000E+00   0.0000000000E+00   0.0000000000E+00   0.0000000000E+00   0.1245539252E+01   0.1272913694E-12   0.1273511670E-12  -0.7533527349E-16  -0.3763029799E-16  -0.3575482813E-16
   0.1090000000E+01   0.9552075899E+00   0.9552075899E+00  -0.1000000000E-01   0.4997798337E-02   0.4997798337E-02   0.1000000000E+00  -0.4979020846E-01  -0.4979020846E-01   0.0000000000E+00   0.0000000000E+00   0.0000000000E+00   0.0000000000E+00   0.0000000000E+00   0.0000000000E+00   0.1245539252E+01   0.1191732726E-12   0.1191979070E-12  -0.1821600859E-15   0.3372485052E-16   0.4954026953E-16
   0.0000000000E+00   0.9552075899E+00   0.9552075899E+00   0.0000000000E+00   0.4997798337E-02   0.4997798337E-02   0.0000000000E+00  -0.4979020846E-01  -0.4979020846E-01   0.0000000000E+00   0.0000000000E+00   0.0000000000E+00   0.0000000000E+00   0.0000000000E+00   0.0000000000E+00   0.1245539252E+01   0.1389313616E-12   0.1388431729E-12  -0.2137078436E-16   0.3379179886E-16   0.7594406529E-16
   0.2180000000E+01   0.0000000000E+00   0.1104681075E-16  -0.2000000000E-01   0.0000000000E+00   0.1226902736E-16   0.2000000000E+00   0.0000000000E+00  -0.1222216607E-17   0.0000000000E+00   0.0000000000E+00   0.0000000000E+00   0.0000000000E+00   0.0000000000E+00   0.0000000000E+00   0.1245539252E+01   0.1273649867E-12   0.1274034909E-12  -0.1781930201E-16  -0.4900417757E-17   0.9865117852E-16
   0.2180000000E+01   0.9552075899E+00   0.3050769853E-16  -0.2000000000E-01   0.4997798337E-02   0.3116552859E-16   0.2000000000E+00  -0.4979020846E-01  -0.6578300533E-18   0.0000000000E+00   0.0000000000E+00   0.0000000000E+00   0.0000000000E+00   0.0000000000E+00   0.0000000000E+00   0.1245539252E+01   0.1524906079E-12   0.1523801074E-12   0.1028914882E-15   0.1712573177E-16  -0.9194523715E-16
   0.2180000000E+01   0.0000000000E+00   0.9552075899E+00  -0.2000000000E-01   0.0000000000E+00   0.4997798337E-02   0.2000000000E+00   0.0000000000E+00  -0.4979020846E-01   0.0000000000E+00   0.0000000000E+00   0.0000000000E+00   0.0000000000E+00   0.0000000000E+00   0.0000000000E+00   0.1245539252E+01   0.1548487063E-12   0.1550131769E-12   0.1969776290E-16   0.1966322196E-15   0.2984513437E-16
   0.2180000000E+01   0.9552075899E+00   0.9552075899E+00  -0.2000000000E-01   0.4997798337E-02   0.4997798337E-02   0.2000000000E+00  -0.4979020846E-01  -0.4979020846E-01   0.0000000000E+00   0.0000000000E+00   0.0000000000E+00   0.0000000000E+00   0.0000000000E+00   0.0000000000E+00   0.1245539252E+01   0.1276698289E-12   0.1276852853E-12   0.6747014837E-16  -0.1225537466E-15   0.4942378612E-17
     1     2     3     4     5     6     7     8
     2     9    10     3     6    11    12     7
 VARIABLES = X,Y,Z,DU1,DU2,DU3,U1,U2,U3,e11,e22,e33,e12,e13,e23,S11,S22,S33,S12,S13,S23
 ZONE, T="0.6000D+00" F=FEPOINT, I=   12 J=    2 ET=BRICK
   0.0000000000E+00   0.0000000000E+00   0.0000000000E+00   0.0000000000E+00   0.0000000000E+00   0.0000000000E+00   0.0000000000E+00   0.0000000000E+00   0.0000000000E+00   0.0000000000E+00   0.0000000000E+00   0.0000000000E+00   0.0000000000E+00   0.0000000000E+00   0.0000000000E+00   0.1230933773E+01   0.6506560349E-13   0.6490753757E-13   0.6009509642E-17   0.5448030117E-16  -0.4803064215E-17
   0.1080000000E+01   0.0000000000E+00  -0.1419796538E-17  -0.1000000000E-01   0.0000000000E+00  -0.6498511190E-17   0.9000000000E-01   0.0000000000E+00   0.5078714652E-17   0.0000000000E+00   0.0000000000E+00   0.0000000000E+00   0.0000000000E+00   0.0000000000E+00   0.0000000000E+00   0.1230933773E+01   0.8304274168E-13   0.8308315695E-13  -0.8805747697E-17  -0.6477371614E-16   0.6915690337E-16
   0.1080000000E+01   0.9602051556E+00   0.1033673375E-16  -0.1000000000E-01   0.4997565753E-02  -0.1142320241E-17   0.9000000000E-01  -0.4479241012E-01   0.1147905399E-16   0.0000000000E+00   0.0000000000E+00   0.0000000000E+00   0.0000000000E+00   0.0000000000E+00   0.0000000000E+00   0.1230933773E+01   0.6060755676E-13   0.6041755395E-13   0.4536743848E-16   0.9243522025E-16   0.4375009024E-16
   0.0000000000E+00   0.9602051556E+00   0.1698073291E-17   0.0000000000E+00   0.4997565753E-02   0.1305775769E-16   0.0000000000E+00  -0.4479241012E-01  -0.1135968440E-16   0.0000000000E+00   0.0000000000E+00   0.0000000000E+00   0.0000000000E+00   0.0000000000E+00   0.0000000000E+00   0.1230933773E+01   0.8296009061E-13   0.8298509070E-13  -0.1512098872E-15   0.1202153635E-16  -0.4118022456E-16
   0.0000000000E+00   0.0000000000E+00   0.9602051556E+00   0.0000000000E+00   0.0000000000E+00   0.4997565753E-02   0.0000000000E+00   0.0000000000E+00  -0.4479241012E-01   0.0000000000E+00   0.0000000000E+00   0.0000000000E+00   0.0000000000E+00   0.0000000000E+00   0.0000000000E+00   0.1230933773E+01   0.5205539473E-13   0.5203214051E-13   0.1636587078E-16  -0.5086999227E-16   0.2042267918E-16
   0.1080000000E+01   0.0000000000E+00   0.9602051556E+00  -0.1000000000E-01   0.0000000000E+00   0.4997565753E-02   0.9000000000E-01   0.0000000000E+00  -0.4479241012E-01   0.0000000000E+00   0.0000000000E+00   0.0000000000E+00   0.0000000000E+00   0.0000000000E+00   0.0000000000E+00   0.1230933773E+01   0.7300760064E-13   0.7314896955E-13  -0.1778646075E-16   0.1019270260E-15  -0.8073026367E-17
   0.1080000000E+01   0.9602051556E+00   0.9602051556E+00  -0.1000000000E-01   0.4997565753E-02   0.4997565753E-02   0.9000000000E-01  -0.4479241012E-01  -0.4479241012E-01   0.0000000000E+00   0.0000000000E+00   0.0000000000E+00   0.0000000000E+00   0.0000000000E+00   0.0000000000E+00   0.1230933773E+01   0.5090385783E-13   0.5081469758E-13  -0.3078989026E-16  -0.5300368299E-16   0.7902390356E-16
   0.0000000000E+00   0.9602051556E+00   0.9602051556E+00   0.0000000000E+00   0.4997565753E-02   0.4997565753E-02   0.0000000000E+00  -0.4479241012E-01  -0.4479241012E-01   0.0000000000E+00   0.0000000000E+00   0.0000000000E+00   0.0000000000E+00   0.0000000000E+00   0.0000000000E+00   0.1230933773E+01   0.6959890897E-13   0.6975872475E-13   0.3926617151E-16  -0.7987729485E-17  -0.3537302706E-16
   0.2160000000E+01   0.0000000000E+00   0.8518468290E-17  -0.2000000000E-01   0.0000000000E+00  -0.2528342460E-17   0.1800000000E+00   0.0000000000E+00   0.1104681075E-16   0.0000000000E+00   0.0000000000E+00   0.0000000000E+00   0.0000000000E+00   0.0000000000E+00   0.0000000000E+00   0.1230933773E+01   0.8450742676E-13   0.8448721912E-13  -0.3189804323E-16  -0.1635745565E-15  -0.2720676007E-16
   0.2160000000E+01   0.9602051556E+00   0.7870038883E-17  -0.2000000000E-01   0.4997565753E-02  -0.2263765965E-16   0.1800000000E+00  -0.4479241012E-01   0.3050769853E-16   0.0000000000E+00   0.0000000000E+00   0.0000000000E+00   0.0000000000E+00   0.0000000000E+00   0.0000000000E+00   0.1230933773E+01   0.6361084962E-13   0.6337456061E-13   0.9043156231E-16  -0.7881100886E-17  -0.5768946585E-16
   0.2160000000E+01   0.0000000000E+00   0.9602051556E+00  -0.2000000000E-01   0.0000000000E+00   0.4997565753E-02   0.1800000000E+00   0.0000000000E+00  -0.4479241012E-01   0.0000000000E+00   0.0000000000E+00   0.0000000000E+00   0.0000000000E+00   0.0000000000E+00   0.0000000000E+00   0.1230933773E+01   0.5707953754E-13   0.5734014349E-13  -0.7143643536E-16  -0.3354213013E-15   0.5193864320E-16
   0.2160000000E+01   0.9602051556E+00   0.9602051556E+00  -0.2000000000E-01   0.4997565753E-02   0.4997565753E-02   0.1800000000E+00  -0.4479241012E-01  -0.4479241012E-01   0.0000000000E+00   0.0000000000E+00   0.0000000000E+00   0.0000000000E+00   0.0000000000E+00   0.0000000000E+00   0.1230933773E+01   0.3608515187E-13   0.3612973199E-13  -0.1412913384E-15   0.3552440432E-15  -0.2710293199E-15
     1     2     3     4     5     6     7     8
     2     9    10     3     6    11    12     7
 VARIABLES = X,Y,Z,DU1,DU2,DU3,U1,U2,U3,e11,e22,e33,e12,e13,e23,S11,S22,S33,S12,S13,S23
 ZONE, T="0.6500D+00" F=FEPOINT, I=   12 J=    2 ET=BRICK
   0.0000000000E+00   0.0000000000E+00   0.0000000000E+00   0.0000000000E+00   0.0000000000E+00   0.0000000000E+00   0.0000000000E+00   0.0000000000E+00   0.0000000000E+00   0.0000000000E+00   0.0000000000E+00   0.0000000000E+00   0.0000000000E+00   0.0000000000E+00   0.0000000000E+00   0.1214579638E+01   0.1261190311E-12   0.1260714618E-12   0.1052574699E-16  -0.1059350607E-15  -0.4314229365E-16
   0.1070000000E+01   0.0000000000E+00  -0.9523119558E-17  -0.1000000000E-01   0.0000000000E+00  -0.8103323020E-17   0.8000000000E-01   0.0000000000E+00  -0.1419796538E-17   0.0000000000E+00   0.0000000000E+00   0.0000000000E+00   0.0000000000E+00   0.0000000000E+00   0.0000000000E+00   0.1214579638E+01   0.1131069220E-12   0.1129931217E-12   0.8576038331E-16   0.1603161343E-15   0.2683799977E-16
   0.1070000000E+01   0.9652024299E+00  -0.2146879210E-17  -0.1000000000E-01   0.4997274311E-02  -0.1248361296E-16   0.8000000000E-01  -0.3979484437E-01   0.1033673375E-16   0.0000000000E+00   0.0000000000E+00   0.0000000000E+00   0.0000000000E+00   0.0000000000E+00   0.0000000000E+00   0.1214579638E+01   0.1644547850E-12   0.1644547850E-12   0.1139663351E-15  -0.1002795058E-15   0.3979204797E-16
   0.0000000000E+00   0.9652024299E+00  -0.6527743457E-17   0.0000000000E+00   0.4997274311E-02  -0.8225816748E-17   0.0000000000E+00  -0.3979484437E-01   0.1698073291E-17   0.0000000000E+00   0.0000000000E+00   0.0000000000E+00   0.0000000000E+00   0.0000000000E+00   0.0000000000E+00   0.1214579638E+01   0.1807139703E-12   0.1808184398E-12   0.2074437804E-16   0.9149112629E-16  -0.1047692062E-15
   0.0000000000E+00   0.0000000000E+00   0.9652024299E+00   0.0000000000E+00   0.0000000000E+00   0.4997274311E-02   0.0000000000E+00   0.0000000000E+00  -0.3979484437E-01   0.0000000000E+00   0.0000000000E+00   0.0000000000E+00   0.0000000000E+00   0.0000000000E+00   0.0000000000E+00   0.1214579638E+01   0.1524298960E-12   0.1525598579E-12  -0.3456116658E-16  -0.1016209840E-15   0.9996688094E-16
   0.1070000000E+01   0.0000000000E+00   0.9652024299E+00  -0.1000000000E-01   0.0000000000E+00   0.4997274311E-02   0.8000000000E-01   0.0000000000E+00  -0.3979484437E-01   0.0000000000E+00   0.0000000000E+00   0.0000000000E+00   0.0000000000E+00   0.0000000000E+00   0.0000000000E+00   0.1214579638E+01   0.1569491508E-12   0.1568098581E-12  -0.6300916441E-16   0.1997105161E-15   0.7988094524E-16
   0.1070000000E+01   0.9652024299E+00   0.9652024299E+00  -0.1000000000E-01   0.4997274311E-02   0.4997274311E-02   0.8000000000E-01  -0.3979484437E-01  -0.3979484437E-01   0.0000000000E+00   0.0000000000E+00   0.0000000000E+00   0.0000000000E+00   0.0000000000E+00   0.0000000000E+00   0.1214579638E+01   0.1249861452E-12   0.1249606529E-12  -0.9577648738E-16  -0.2266834300E-15  -0.3339330167E-16
   0.0000000000E+00   0.9652024299E+00   0.9652024299E+00   0.0000000000E+00   0.4997274311E-02   0.4997274311E-02   0.0000000000E+00  -0.3979484437E-01  -0.3979484437E-01   0.0000000000E+00   0.0000000000E+00   0.0000000000E+00   0.0000000000E+00   0.0000000000E+00   0.0000000000E+00   0.1214579638E+01   0.1237801976E-12   0.1240621984E-12  -0.1088606844E-16  -0.3379694486E-17  -0.4996002353E-16
   0.2140000000E+01   0.0000000000E+00  -0.4565891236E-17  -0.2000000000E-01   0.0000000000E+00  -0.1308435953E-16   0.1600000000E+00   0.0000000000E+00   0.8518468290E-17   0.0000000000E+00   0.0000000000E+00   0.0000000000E+00   0.0000000000E+00   0.0000000000E+00   0.0000000000E+00   0.1214579638E+01   0.1120436825E-12   0.1119009744E-12   0.2787400439E-16  -0.2904661753E-15  -0.1216038043E-15
   0.2140000000E+01   0.9652024299E+00  -0.2317797434E-16  -0.2000000000E-01   0.4997274311E-02  -0.3104801322E-16   0.1600000000E+00  -0.3979484437E-01   0.7870038883E-17   0.0000000000E+00   0.0000000000E+00   0.0000000000E+00   0.0000000000E+00   0.0000000000E+00   0.0000000000E+00   0.1214579638E+01   0.1806315777E-12   0.1808056936E-12  -0.9670469540E-16   0.3228928998E-15  -0.1652096106E-16
   0.2140000000E+01   0.0000000000E+00   0.9652024299E+00  -0.2000000000E-01   0.0000000000E+00   0.4997274311E-02   0.1600000000E+00   0.0000000000E+00  -0.3979484437E-01   0.0000000000E+00   0.0000000000E+00   0.0000000000E+00   0.0000000000E+00   0.0000000000E+00   0.0000000000E+00   0.1214579638E+01   0.1525122885E-12   0.1523823266E-12   0.2308602657E-16  -0.2297961619E-15  -0.1839205415E-16
   0.2140000000E+01   0.9652024299E+00   0.9652024299E+00  -0.2000000000E-01   0.4997274311E-02   0.4997274311E-02   0.1600000000E+00  -0.3979484437E-01  -0.3979484437E-01   0.0000000000E+00   0.0000000000E+00   0.0000000000E+00   0.0000000000E+00   0.0000000000E+00   0.0000000000E+00   0.1214579638E+01   0.1381409623E-12   0.1383278244E-12   0.8956947361E-16   0.2833695896E-15   0.5801723364E-16
     1     2     3     4     5     6     7     8
     2     9    10     3     6    11    12     7
 VARIABLES = X,Y,Z,DU1,DU2,DU3,U1,U2,U3,e11,e22,e33,e12,e13,e23,S11,S22,S33,S12,S13,S23
 ZONE, T="0.7000D+00" F=FEPOINT, I=   12 J=    2 ET=BRICK
   0.0000000000E+00   0.0000000000E+00   0.0000000000E+00   0.0000000000E+00   0.0000000000E+00   0.0000000000E+00   0.0000000000E+00   0.0000000000E+00   0.0000000000E+00   0.0000000000E+00   0.0000000000E+00   0.0000000000E+00   0.0000000000E+00   0.0000000000E+00   0.0000000000E+00   0.1195966001E+01   0.3130218391E-12   0.3131141561E-12  -0.3604438035E-16   0.3936482820E-16  -0.3607055284E-16
   0.1060000000E+01   0.0000000000E+00   0.2237596018E-17  -0.1000000000E-01   0.0000000000E+00   0.1176071558E-16   0.7000000000E-01   0.0000000000E+00  -0.9523119558E-17   0.0000000000E+00   0.0000000000E+00   0.0000000000E+00   0.0000000000E+00   0.0000000000E+00   0.0000000000E+00   0.1195966001E+01   0.3204311437E-12   0.3206174480E-12  -0.1506580581E-16  -0.1094895115E-15  -0.6579980648E-17
   0.1060000000E+01   0.9701993277E+00   0.2295930905E-17  -0.1000000000E-01   0.4996897727E-02   0.4442810115E-17   0.7000000000E-01  -0.3479757006E-01  -0.2146879210E-17   0.0000000000E+00   0.0000000000E+00   0.0000000000E+00   0.0000000000E+00   0.0000000000E+00   0.0000000000E+00   0.1195966001E+01   0.3051187194E-12   0.3052102768E-12  -0.9117523029E-16   0.1673262342E-15  -0.2093745717E-16
   0.0000000000E+00   0.9701993277E+00  -0.1589653335E-17   0.0000000000E+00   0.4996897727E-02   0.4938090122E-17   0.0000000000E+00  -0.3479757006E-01  -0.6527743457E-17   0.0000000000E+00   0.0000000000E+00   0.0000000000E+00   0.0000000000E+00   0.0000000000E+00   0.0000000000E+00   0.1195966001E+01   0.3343764396E-12   0.3343706632E-12   0.3240468986E-16  -0.2694245733E-16   0.2139804083E-15
   0.0000000000E+00   0.0000000000E+00   0.9701993277E+00   0.0000000000E+00   0.0000000000E+00   0.4996897727E-02   0.0000000000E+00   0.0000000000E+00  -0.3479757006E-01   0.0000000000E+00   0.0000000000E+00   0.0000000000E+00   0.0000000000E+00   0.0000000000E+00   0.0000000000E+00   0.1195966001E+01   0.3229957184E-12   0.3229372167E-12   0.4828051092E-16  -0.8073698511E-16  -0.2983940483E-16
   0.1060000000E+01   0.0000000000E+00   0.9701993277E+00  -0.1000000000E-01   0.0000000000E+00   0.4996897727E-02   0.7000000000E-01   0.0000000000E+00  -0.3479757006E-01   0.0000000000E+00   0.0000000000E+00   0.0000000000E+00   0.0000000000E+00   0.0000000000E+00   0.0000000000E+00   0.1195966001E+01   0.3174719634E-12   0.3174288358E-12  -0.2279791392E-16  -0.2337784556E-16  -0.1509277006E-16
   0.1060000000E+01   0.9701993277E+00   0.9701993277E+00  -0.1000000000E-01   0.4996897727E-02   0.4996897727E-02   0.7000000000E-01  -0.3479757006E-01  -0.3479757006E-01   0.0000000000E+00   0.0000000000E+00   0.0000000000E+00   0.0000000000E+00   0.0000000000E+00   0.0000000000E+00   0.1195966000E+01   0.3126117450E-12   0.3124739667E-12   0.5163454185E-16  -0.1360248156E-15   0.8760870813E-16
   0.0000000000E+00   0.9701993277E+00   0.9701993277E+00   0.0000000000E+00   0.4996897727E-02   0.4996897727E-02   0.0000000000E+00  -0.3479757006E-01  -0.3479757006E-01   0.0000000000E+00   0.0000000000E+00   0.0000000000E+00   0.0000000000E+00   0.0000000000E+00   0.0000000000E+00   0.1195966001E+01   0.3080630925E-12   0.3079065712E-12  -0.6795170858E-16   0.1636634721E-15  -0.4757981305E-16
   0.2120000000E+01   0.0000000000E+00   0.1258053055E-16  -0.2000000000E-01   0.0000000000E+00   0.1714642178E-16   0.1400000000E+00   0.0000000000E+00  -0.4565891236E-17   0.0000000000E+00   0.0000000000E+00   0.0000000000E+00   0.0000000000E+00   0.0000000000E+00   0.0000000000E+00   0.1195966001E+01   0.3361986133E-12   0.3361508500E-12   0.5617743249E-16  -0.1159751347E-15  -0.7679265335E-16
   0.2120000000E+01   0.9701993277E+00   0.4815092743E-17  -0.2000000000E-01   0.4996897727E-02   0.2799306708E-16   0.1400000000E+00  -0.3479757006E-01  -0.2317797434E-16   0.0000000000E+00   0.0000000000E+00   0.0000000000E+00   0.0000000000E+00   0.0000000000E+00   0.0000000000E+00   0.1195966001E+01   0.2944381145E-12   0.2944377044E-12   0.2750954049E-16  -0.3012970965E-16   0.4641748519E-16
   0.2120000000E+01   0.0000000000E+00   0.9701993277E+00  -0.2000000000E-01   0.0000000000E+00   0.4996897727E-02   0.1400000000E+00   0.0000000000E+00  -0.3479757006E-01   0.0000000000E+00   0.0000000000E+00   0.0000000000E+00   0.0000000000E+00   0.0000000000E+00   0.0000000000E+00   0.1195966001E+01   0.2993003058E-12   0.2992218120E-12  -0.9635965029E-16  -0.2689409688E-15  -0.4840475776E-16
   0.2120000000E+01   0.9701993277E+00   0.9701993277E+00  -0.2000000000E-01   0.4996897727E-02   0.4996897727E-02   0.1400000000E+00  -0.3479757006E-01  -0.3479757006E-01   0.0000000000E+00   0.0000000000E+00   0.0000000000E+00   0.0000000000E+00   0.0000000000E+00   0.0000000000E+00   0.1195966000E+01   0.3149715808E-12   0.3149404178E-12   0.9532110962E-16   0.4398166648E-15  -0.1032390110E-15
     1     2     3     4     5     6     7     8
     2     9    10     3     6    11    12     7
 VARIABLES = X,Y,Z,DU1,DU2,DU3,U1,U2,U3,e11,e22,e33,e12,e13,e23,S11,S22,S33,S12,S13,S23
 ZONE, T="0.7500D+00" F=FEPOINT, I=   12 J=    2 ET=BRICK
   0.0000000000E+00   0.0000000000E+00   0.0000000000E+00   0.0000000000E+00   0.0000000000E+00   0.0000000000E+00   0.0000000000E+00   0.0000000000E+00   0.0000000000E+00   0.0000000000E+00   0.0000000000E+00   0.0000000000E+00   0.0000000000E+00   0.0000000000E+00   0.0000000000E+00   0.1174312058E+01   0.7997690098E-12   0.7996572932E-12  -0.1248935395E-16  -0.4187769776E-16   0.6473604819E-16
   0.1050000000E+01   0.0000000000E+00   0.3017395610E-18  -0.1000000000E-01   0.0000000000E+00  -0.1935856457E-17   0.6000000000E-01   0.0000000000E+00   0.2237596018E-17   0.0000000000E+00   0.0000000000E+00   0.0000000000E+00   0.0000000000E+00   0.0000000000E+00   0.0000000000E+00   0.1174312058E+01   0.8162789119E-12   0.8162789489E-12  -0.3090583191E-18   0.3263642597E-16   0.7009519233E-16
   0.1050000000E+01   0.9751957187E+00   0.3626834736E-17  -0.1000000000E-01   0.4996391010E-02   0.1330903831E-17   0.6000000000E-01  -0.2980067233E-01   0.2295930905E-17   0.0000000000E+00   0.0000000000E+00   0.0000000000E+00   0.0000000000E+00   0.0000000000E+00   0.0000000000E+00   0.1174312058E+01   0.8129732710E-12   0.8129560233E-12   0.1117751130E-15  -0.1143497900E-15  -0.4428530097E-16
   0.0000000000E+00   0.9751957187E+00   0.6514628513E-17   0.0000000000E+00   0.4996391010E-02   0.8104281848E-17   0.0000000000E+00  -0.2980067233E-01  -0.1589653335E-17   0.0000000000E+00   0.0000000000E+00   0.0000000000E+00   0.0000000000E+00   0.0000000000E+00   0.0000000000E+00   0.1174312058E+01   0.8019730715E-12   0.8019817274E-12   0.5592711371E-16   0.4334223989E-16   0.1124918626E-18
   0.0000000000E+00   0.0000000000E+00   0.9751957187E+00   0.0000000000E+00   0.0000000000E+00   0.4996391010E-02   0.0000000000E+00   0.0000000000E+00  -0.2980067233E-01   0.0000000000E+00   0.0000000000E+00   0.0000000000E+00   0.0000000000E+00   0.0000000000E+00   0.0000000000E+00   0.1174312058E+01   0.7795608771E-12   0.7794470114E-12  -0.1895802167E-17   0.6377898434E-17  -0.2009818324E-16
   0.1050000000E+01   0.0000000000E+00   0.9751957187E+00  -0.1000000000E-01   0.0000000000E+00   0.4996391010E-02   0.6000000000E-01   0.0000000000E+00  -0.2980067233E-01   0.0000000000E+00   0.0000000000E+00   0.0000000000E+00   0.0000000000E+00   0.0000000000E+00   0.0000000000E+00   0.1174312058E+01   0.8038776709E-12   0.8039421043E-12   0.1491432851E-16  -0.5467071175E-16  -0.3088489457E-16
   0.1050000000E+01   0.9751957187E+00   0.9751957187E+00  -0.1000000000E-01   0.4996391010E-02   0.4996391010E-02   0.6000000000E-01  -0.2980067233E-01  -0.2980067233E-01   0.0000000000E+00   0.0000000000E+00   0.0000000000E+00   0.0000000000E+00   0.0000000000E+00   0.0000000000E+00   0.1174312058E+01   0.8110103222E-12   0.8110575007E-12  -0.1690625878E-17   0.9226498010E-16   0.2723634577E-16
   0.0000000000E+00   0.9751957187E+00   0.9751957187E+00   0.0000000000E+00   0.4996391010E-02   0.4996391010E-02   0.0000000000E+00  -0.2980067233E-01  -0.2980067233E-01   0.0000000000E+00   0.0000000000E+00   0.0000000000E+00   0.0000000000E+00   0.0000000000E+00   0.0000000000E+00   0.1174312058E+01   0.8075775768E-12   0.8075838763E-12   0.2040767568E-16   0.1020400432E-16  -0.4186605084E-16
   0.2100000000E+01   0.0000000000E+00   0.8700740256E-19  -0.2000000000E-01   0.0000000000E+00  -0.1249352315E-16   0.1200000000E+00   0.0000000000E+00   0.1258053055E-16   0.0000000000E+00   0.0000000000E+00   0.0000000000E+00   0.0000000000E+00   0.0000000000E+00   0.0000000000E+00   0.1174312058E+01   0.8101859371E-12   0.8102031884E-12   0.6040035449E-16   0.1773942487E-15  -0.2846883562E-16
   0.2100000000E+01   0.9751957187E+00   0.4244154340E-17  -0.2000000000E-01   0.4996391010E-02  -0.5709384038E-18   0.1200000000E+00  -0.2980067233E-01   0.4815092743E-17   0.0000000000E+00   0.0000000000E+00   0.0000000000E+00   0.0000000000E+00   0.0000000000E+00   0.0000000000E+00   0.1174312058E+01   0.8118387573E-12   0.8118646510E-12  -0.7879399729E-16   0.1023185824E-15   0.1664389509E-15
   0.2100000000E+01   0.0000000000E+00   0.9751957187E+00  -0.2000000000E-01   0.0000000000E+00   0.4996391010E-02   0.1200000000E+00   0.0000000000E+00  -0.2980067233E-01   0.0000000000E+00   0.0000000000E+00   0.0000000000E+00   0.0000000000E+00   0.0000000000E+00   0.0000000000E+00   0.1174312058E+01   0.8163865571E-12   0.8163716103E-12  -0.5129774676E-16  -0.1038913621E-15  -0.1334924683E-16
   0.2100000000E+01   0.9751957187E+00   0.9751957187E+00  -0.2000000000E-01   0.4996391010E-02   0.4996391010E-02   0.1200000000E+00  -0.2980067233E-01  -0.2980067233E-01   0.0000000000E+00   0.0000000000E+00   0.0000000000E+00   0.0000000000E+00   0.0000000000E+00   0.0000000000E+00   0.1174312058E+01   0.8128202315E-12   0.8128139121E-12  -0.1483201346E-16  -0.6690188015E-16  -0.1431127434E-15
     1     2     3     4     5     6     7     8
     2     9    10     3     6    11    12     7
 VARIABLES = X,Y,Z,DU1,DU2,DU3,U1,U2,U3,e11,e22,e33,e12,e13,e23,S11,S22,S33,S12,S13,S23
 ZONE, T="0.8000D+00" F=FEPOINT, I=   12 J=    2 ET=BRICK
   0.0000000000E+00   0.0000000000E+00   0.0000000000E+00   0.0000000000E+00   0.0000000000E+00   0.0000000000E+00   0.0000000000E+00   0.0000000000E+00   0.0000000000E+00   0.0000000000E+00   0.0000000000E+00   0.0000000000E+00   0.0000000000E+00   0.0000000000E+00   0.0000000000E+00   0.1148331417E+01   0.2505500997E-11   0.2505616987E-11  -0.3818732244E-16   0.4258470532E-16   0.7510775322E-16
   0.1040000000E+01   0.0000000000E+00   0.5221918468E-17  -0.1000000000E-01   0.0000000000E+00   0.4920178907E-17   0.5000000000E-01   0.0000000000E+00   0.3017395610E-18   0.0000000000E+00   0.0000000000E+00   0.0000000000E+00   0.0000000000E+00   0.0000000000E+00   0.0000000000E+00   0.1148331417E+01   0.2504562092E-11   0.2504660810E-11   0.1548254782E-15  -0.1988464997E-16   0.2092965790E-16
   0.1040000000E+01   0.9801913886E+00   0.1075472792E-16  -0.1000000000E-01   0.4995669893E-02   0.7127893185E-17   0.5000000000E-01  -0.2480428132E-01   0.3626834736E-17   0.0000000000E+00   0.0000000000E+00   0.0000000000E+00   0.0000000000E+00   0.0000000000E+00   0.0000000000E+00   0.1148331417E+01   0.2513138731E-11   0.2513200858E-11   0.7503249920E-16  -0.4542100398E-16   0.1565673776E-15
   0.0000000000E+00   0.9801913886E+00   0.6810109520E-17   0.0000000000E+00   0.4995669893E-02   0.2954810068E-18   0.0000000000E+00  -0.2480428132E-01   0.6514628513E-17   0.0000000000E+00   0.0000000000E+00   0.0000000000E+00   0.0000000000E+00   0.0000000000E+00   0.0000000000E+00   0.1148331417E+01   0.2509839285E-11   0.2509664035E-11  -0.4481203662E-16   0.1305950131E-16   0.9227461513E-17
   0.0000000000E+00   0.0000000000E+00   0.9801913886E+00   0.0000000000E+00   0.0000000000E+00   0.4995669893E-02   0.0000000000E+00   0.0000000000E+00  -0.2480428132E-01   0.0000000000E+00   0.0000000000E+00   0.0000000000E+00   0.0000000000E+00   0.0000000000E+00   0.0000000000E+00   0.1148331417E+01   0.2511305302E-11   0.2511450147E-11  -0.8090086553E-17   0.1114873474E-15  -0.5374905933E-16
   0.1040000000E+01   0.0000000000E+00   0.9801913886E+00  -0.1000000000E-01   0.0000000000E+00   0.4995669893E-02   0.5000000000E-01   0.0000000000E+00  -0.2480428132E-01   0.0000000000E+00   0.0000000000E+00   0.0000000000E+00   0.0000000000E+00   0.0000000000E+00   0.0000000000E+00   0.1148331417E+01   0.2506050790E-11   0.2506091838E-11   0.6518188872E-16  -0.2522572964E-16  -0.4723798613E-16
   0.1040000000E+01   0.9801913886E+00   0.9801913886E+00  -0.1000000000E-01   0.4995669893E-02   0.4995669893E-02   0.5000000000E-01  -0.2480428132E-01  -0.2480428132E-01   0.0000000000E+00   0.0000000000E+00   0.0000000000E+00   0.0000000000E+00   0.0000000000E+00   0.0000000000E+00   0.1148331417E+01   0.2493737592E-11   0.2493742064E-11   0.1022493532E-16  -0.2253792984E-16  -0.4830751772E-16
   0.0000000000E+00   0.9801913886E+00   0.9801913886E+00   0.0000000000E+00   0.4995669893E-02   0.4995669893E-02   0.0000000000E+00  -0.2480428132E-01  -0.2480428132E-01   0.0000000000E+00   0.0000000000E+00   0.0000000000E+00   0.0000000000E+00   0.0000000000E+00   0.0000000000E+00   0.1148331417E+01   0.2495099942E-11   0.2494953444E-11   0.1920593379E-16  -0.4367822771E-17  -0.1496350538E-15
   0.2080000000E+01   0.0000000000E+00   0.1123951465E-16  -0.2000000000E-01   0.0000000000E+00   0.1115250725E-16   0.1000000000E+00   0.0000000000E+00   0.8700740256E-19   0.0000000000E+00   0.0000000000E+00   0.0000000000E+00   0.0000000000E+00   0.0000000000E+00   0.0000000000E+00   0.1148331417E+01   0.2512020477E-11   0.2512028805E-11  -0.8035300881E-16  -0.1417167982E-16  -0.6174640575E-16
   0.2080000000E+01   0.9801913886E+00   0.7918791099E-17  -0.2000000000E-01   0.4995669893E-02   0.3674636759E-17   0.1000000000E+00  -0.2480428132E-01   0.4244154340E-17   0.0000000000E+00   0.0000000000E+00   0.0000000000E+00   0.0000000000E+00   0.0000000000E+00   0.0000000000E+00   0.1148331417E+01   0.2514280811E-11   0.2514307434E-11   0.1878404383E-16  -0.2114547821E-16   0.6756770737E-16
   0.2080000000E+01   0.0000000000E+00   0.9801913886E+00  -0.2000000000E-01   0.0000000000E+00   0.4995669893E-02   0.1000000000E+00   0.0000000000E+00  -0.2480428132E-01   0.0000000000E+00   0.0000000000E+00   0.0000000000E+00   0.0000000000E+00   0.0000000000E+00   0.0000000000E+00   0.1148331417E+01   0.2508847459E-11   0.2508711542E-11  -0.1265898067E-16   0.1050458049E-15   0.1851153294E-17
   0.2080000000E+01   0.9801913886E+00   0.9801913886E+00  -0.2000000000E-01   0.4995669893E-02   0.4995669893E-02   0.1000000000E+00  -0.2480428132E-01  -0.2480428132E-01   0.0000000000E+00   0.0000000000E+00   0.0000000000E+00   0.0000000000E+00   0.0000000000E+00   0.0000000000E+00   0.1148331417E+01   0.2490564146E-11   0.2490446516E-11  -0.1945871066E-16  -0.3497607778E-16  -0.7438501352E-16
     1     2     3     4     5     6     7     8
     2     9    10     3     6    11    12     7
 VARIABLES = X,Y,Z,DU1,DU2,DU3,U1,U2,U3,e11,e22,e33,e12,e13,e23,S11,S22,S33,S12,S13,S23
 ZONE, T="0.8500D+00" F=FEPOINT, I=   12 J=    2 ET=BRICK
   0.0000000000E+00   0.0000000000E+00   0.0000000000E+00   0.0000000000E+00   0.0000000000E+00   0.0000000000E+00   0.0000000000E+00   0.0000000000E+00   0.0000000000E+00   0.0000000000E+00   0.0000000000E+00   0.0000000000E+00   0.0000000000E+00   0.0000000000E+00   0.0000000000E+00   0.1115661125E+01   0.1035479538E-10   0.1035489033E-10  -0.3556688932E-17   0.3409828038E-16  -0.1054761614E-15
   0.1030000000E+01   0.0000000000E+00   0.2972894327E-17  -0.1000000000E-01   0.0000000000E+00  -0.2249024141E-17   0.4000000000E-01   0.0000000000E+00   0.5221918468E-17   0.0000000000E+00   0.0000000000E+00   0.0000000000E+00   0.0000000000E+00   0.0000000000E+00   0.0000000000E+00   0.1115661125E+01   0.1035583305E-10   0.1035568053E-10  -0.2964302589E-16  -0.1492551936E-15  -0.4730064771E-16
   0.1030000000E+01   0.9851859435E+00   0.1912177370E-17  -0.1000000000E-01   0.4994554951E-02  -0.8842550551E-17   0.4000000000E-01  -0.1980861143E-01   0.1075472792E-16   0.0000000000E+00   0.0000000000E+00   0.0000000000E+00   0.0000000000E+00   0.0000000000E+00   0.0000000000E+00   0.1115661125E+01   0.1035872544E-10   0.1035879736E-10   0.7361449588E-16  -0.1019566957E-15   0.7833420047E-16
   0.0000000000E+00   0.9851859435E+00  -0.8046238836E-17   0.0000000000E+00   0.4994554951E-02  -0.1485634836E-16   0.0000000000E+00  -0.1980861143E-01   0.6810109520E-17   0.0000000000E+00   0.0000000000E+00   0.0000000000E+00   0.0000000000E+00   0.0000000000E+00   0.0000000000E+00   0.1115661125E+01   0.1036225079E-10   0.1036245796E-10   0.8768197239E-16   0.1851940238E-15   0.1276002501E-15
   0.0000000000E+00   0.0000000000E+00   0.9851859435E+00   0.0000000000E+00   0.0000000000E+00   0.4994554951E-02   0.0000000000E+00   0.0000000000E+00  -0.1980861143E-01   0.0000000000E+00   0.0000000000E+00   0.0000000000E+00   0.0000000000E+00   0.0000000000E+00   0.0000000000E+00   0.1115661125E+01   0.1035721598E-10   0.1035702859E-10   0.1728457890E-16  -0.4576192862E-16  -0.5072893043E-16
   0.1030000000E+01   0.0000000000E+00   0.9851859435E+00  -0.1000000000E-01   0.0000000000E+00   0.4994554951E-02   0.4000000000E-01   0.0000000000E+00  -0.1980861143E-01   0.0000000000E+00   0.0000000000E+00   0.0000000000E+00   0.0000000000E+00   0.0000000000E+00   0.0000000000E+00   0.1115661125E+01   0.1035832518E-10   0.1035811154E-10  -0.4090244141E-16  -0.5733448633E-16   0.2372159750E-16
   0.1030000000E+01   0.9851859435E+00   0.9851859435E+00  -0.1000000000E-01   0.4994554951E-02   0.4994554951E-02   0.4000000000E-01  -0.1980861143E-01  -0.1980861143E-01   0.0000000000E+00   0.0000000000E+00   0.0000000000E+00   0.0000000000E+00   0.0000000000E+00   0.0000000000E+00   0.1115661125E+01   0.1036121761E-10   0.1036122841E-10  -0.4814674095E-16   0.9652187652E-17  -0.2458770389E-16
   0.0000000000E+00   0.9851859435E+00   0.9851859435E+00   0.0000000000E+00   0.4994554951E-02   0.4994554951E-02   0.0000000000E+00  -0.1980861143E-01  -0.1980861143E-01   0.0000000000E+00   0.0000000000E+00   0.0000000000E+00   0.0000000000E+00   0.0000000000E+00   0.0000000000E+00   0.1115661125E+01   0.1036467150E-10   0.1036459632E-10  -0.1234778092E-15   0.4418376544E-16   0.9049450513E-16
   0.2060000000E+01   0.0000000000E+00   0.7458104903E-17  -0.2000000000E-01   0.0000000000E+00  -0.3781409750E-17   0.8000000000E-01   0.0000000000E+00   0.1123951465E-16   0.0000000000E+00   0.0000000000E+00   0.0000000000E+00   0.0000000000E+00   0.0000000000E+00   0.0000000000E+00   0.1115661125E+01   0.1035562133E-10   0.1035554797E-10   0.3146381503E-16   0.6815564185E-16  -0.1417355116E-15
   0.2060000000E+01   0.9851859435E+00   0.5620025602E-18  -0.2000000000E-01   0.4994554951E-02  -0.7356788539E-17   0.8000000000E-01  -0.1980861143E-01   0.7918791099E-17   0.0000000000E+00   0.0000000000E+00   0.0000000000E+00   0.0000000000E+00   0.0000000000E+00   0.0000000000E+00   0.1115661125E+01   0.1035395070E-10   0.1035421393E-10   0.5828588442E-17   0.2640683497E-15  -0.1566412647E-15
   0.2060000000E+01   0.0000000000E+00   0.9851859435E+00  -0.2000000000E-01   0.0000000000E+00   0.4994554951E-02   0.8000000000E-01   0.0000000000E+00  -0.1980861143E-01   0.0000000000E+00   0.0000000000E+00   0.0000000000E+00   0.0000000000E+00   0.0000000000E+00   0.0000000000E+00   0.1115661125E+01   0.1036338915E-10   0.1036334636E-10  -0.3134579834E-16  -0.1809424734E-15   0.1449052574E-15
   0.2060000000E+01   0.9851859435E+00   0.9851859435E+00  -0.2000000000E-01   0.4994554951E-02   0.4994554951E-02   0.8000000000E-01  -0.1980861143E-01  -0.1980861143E-01   0.0000000000E+00   0.0000000000E+00   0.0000000000E+00   0.0000000000E+00   0.0000000000E+00   0.0000000000E+00   0.1115661125E+01   0.1036171850E-10   0.1036201229E-10  -0.8805931868E-16   0.4186415992E-16   0.5453906258E-16
     1     2     3     4     5     6     7     8
     2     9    10     3     6    11    12     7
 VARIABLES = X,Y,Z,DU1,DU2,DU3,U1,U2,U3,e11,e22,e33,e12,e13,e23,S11,S22,S33,S12,S13,S23
 ZONE, T="0.9000D+00" F=FEPOINT, I=   12 J=    2 ET=BRICK
   0.0000000000E+00   0.0000000000E+00   0.0000000000E+00   0.0000000000E+00   0.0000000000E+00   0.0000000000E+00   0.0000000000E+00   0.0000000000E+00   0.0000000000E+00   0.0000000000E+00   0.0000000000E+00   0.0000000000E+00   0.0000000000E+00   0.0000000000E+00   0.0000000000E+00   0.1071133965E+01   0.7055097599E-10   0.7055101382E-10   0.8597526775E-18   0.1230776888E-15  -0.2636367428E-17
   0.1020000000E+01   0.0000000000E+00   0.2954553799E-17  -0.1000000000E-01   0.0000000000E+00  -0.1834052804E-19   0.3000000000E-01   0.0000000000E+00   0.2972894327E-17   0.0000000000E+00   0.0000000000E+00   0.0000000000E+00   0.0000000000E+00   0.0000000000E+00   0.0000000000E+00   0.1071133965E+01   0.7055885825E-10   0.7055881151E-10   0.2982496819E-16  -0.2016279309E-16  -0.5056289475E-16
   0.1020000000E+01   0.9901785223E+00   0.2740787320E-18  -0.1000000000E-01   0.4992578807E-02  -0.1638098638E-17   0.3000000000E-01  -0.1481405648E-01   0.1912177370E-17   0.0000000000E+00   0.0000000000E+00   0.0000000000E+00   0.0000000000E+00   0.0000000000E+00   0.0000000000E+00   0.1071133965E+01   0.7056351976E-10   0.7056349277E-10  -0.4573148415E-17   0.2369472843E-16   0.5854375223E-16
   0.0000000000E+00   0.9901785223E+00   0.4325719994E-18   0.0000000000E+00   0.4992578807E-02   0.8478810836E-17   0.0000000000E+00  -0.1481405648E-01  -0.8046238836E-17   0.0000000000E+00   0.0000000000E+00   0.0000000000E+00   0.0000000000E+00   0.0000000000E+00   0.0000000000E+00   0.1071133965E+01   0.7055765911E-10   0.7055768706E-10  -0.2398318137E-16  -0.7973179513E-16   0.1078782049E-15
   0.0000000000E+00   0.0000000000E+00   0.9901785223E+00   0.0000000000E+00   0.0000000000E+00   0.4992578807E-02   0.0000000000E+00   0.0000000000E+00  -0.1481405648E-01   0.0000000000E+00   0.0000000000E+00   0.0000000000E+00   0.0000000000E+00   0.0000000000E+00   0.0000000000E+00   0.1071133965E+01   0.7055311271E-10   0.7055310910E-10  -0.2328921067E-16   0.6287855699E-16  -0.1145788434E-15
   0.1020000000E+01   0.0000000000E+00   0.9901785223E+00  -0.1000000000E-01   0.0000000000E+00   0.4992578807E-02   0.3000000000E-01   0.0000000000E+00  -0.1481405648E-01   0.0000000000E+00   0.0000000000E+00   0.0000000000E+00   0.0000000000E+00   0.0000000000E+00   0.0000000000E+00   0.1071133965E+01   0.7055846293E-10   0.7055836223E-10  -0.3574093694E-16  -0.2324607525E-16   0.6795626503E-17
   0.1020000000E+01   0.9901785223E+00   0.9901785223E+00  -0.1000000000E-01   0.4992578807E-02   0.4992578807E-02   0.3000000000E-01  -0.1481405648E-01  -0.1481405648E-01   0.0000000000E+00   0.0000000000E+00   0.0000000000E+00   0.0000000000E+00   0.0000000000E+00   0.0000000000E+00   0.1071133965E+01   0.7055788605E-10   0.7055780510E-10  -0.7041435300E-16   0.4367725136E-16   0.4317136606E-16
   0.0000000000E+00   0.9901785223E+00   0.9901785223E+00   0.0000000000E+00   0.4992578807E-02   0.4992578807E-02   0.0000000000E+00  -0.1481405648E-01  -0.1481405648E-01   0.0000000000E+00   0.0000000000E+00   0.0000000000E+00   0.0000000000E+00   0.0000000000E+00   0.0000000000E+00   0.1071133965E+01   0.7056241502E-10   0.7056240153E-10   0.3448654545E-16   0.8329714149E-17  -0.9741135759E-16
   0.2040000000E+01   0.0000000000E+00  -0.3703104160E-18  -0.2000000000E-01   0.0000000000E+00  -0.7828415319E-17   0.6000000000E-01   0.0000000000E+00   0.7458104903E-17   0.0000000000E+00   0.0000000000E+00   0.0000000000E+00   0.0000000000E+00   0.0000000000E+00   0.0000000000E+00   0.1071133965E+01   0.7056774681E-10   0.7056787088E-10  -0.1196800458E-16  -0.2600203823E-16   0.4579082271E-16
   0.2040000000E+01   0.9901785223E+00   0.2314586652E-17  -0.2000000000E-01   0.4992578807E-02   0.1752584092E-17   0.6000000000E-01  -0.1481405648E-01   0.5620025602E-18   0.0000000000E+00   0.0000000000E+00   0.0000000000E+00   0.0000000000E+00   0.0000000000E+00   0.0000000000E+00   0.1071133965E+01   0.7056511410E-10   0.7056510061E-10   0.1481079013E-15   0.1082783638E-15   0.5475883832E-16
   0.2040000000E+01   0.0000000000E+00   0.9901785223E+00  -0.2000000000E-01   0.0000000000E+00   0.4992578807E-02   0.6000000000E-01   0.0000000000E+00  -0.1481405648E-01   0.0000000000E+00   0.0000000000E+00   0.0000000000E+00   0.0000000000E+00   0.0000000000E+00   0.0000000000E+00   0.1071133965E+01   0.7056475102E-10   0.7056480860E-10  -0.6679774995E-16   0.1404902798E-15  -0.8368113111E-17
   0.2040000000E+01   0.9901785223E+00   0.9901785223E+00  -0.2000000000E-01   0.4992578807E-02   0.4992578807E-02   0.6000000000E-01  -0.1481405648E-01  -0.1481405648E-01   0.0000000000E+00   0.0000000000E+00   0.0000000000E+00   0.0000000000E+00   0.0000000000E+00   0.0000000000E+00   0.1071133965E+01   0.7054934615E-10   0.7054926617E-10  -0.7083178179E-16  -0.3180610313E-15  -0.8186756907E-16
     1     2     3     4     5     6     7     8
     2     9    10     3     6    11    12     7
 VARIABLES = X,Y,Z,DU1,DU2,DU3,U1,U2,U3,e11,e22,e33,e12,e13,e23,S11,S22,S33,S12,S13,S23
 ZONE, T="0.9500D+00" F=FEPOINT, I=   12 J=    2 ET=BRICK
   0.0000000000E+00   0.0000000000E+00   0.0000000000E+00   0.0000000000E+00   0.0000000000E+00   0.0000000000E+00   0.0000000000E+00   0.0000000000E+00   0.0000000000E+00   0.0000000000E+00   0.0000000000E+00   0.0000000000E+00   0.0000000000E+00   0.0000000000E+00   0.0000000000E+00   0.9988341625E+00   0.1447289859E-07   0.1447289893E-07   0.1759839281E-16   0.1190884420E-16  -0.8522273258E-16
   0.1010000000E+01   0.0000000000E+00  -0.7061358323E-18  -0.1000000000E-01   0.0000000000E+00  -0.3660689631E-17   0.2000000000E-01   0.0000000000E+00   0.2954553799E-17   0.0000000000E+00   0.0000000000E+00   0.0000000000E+00   0.0000000000E+00   0.0000000000E+00   0.0000000000E+00   0.9988341625E+00   0.1447289705E-07   0.1447289724E-07   0.2847122931E-15   0.1778947590E-15  -0.1585008173E-17
   0.1010000000E+01   0.9951664724E+00  -0.1432138919E-17  -0.1000000000E-01   0.4987950038E-02  -0.1706217651E-17   0.2000000000E-01  -0.9821477673E-02   0.2740787320E-18   0.0000000000E+00   0.0000000000E+00   0.0000000000E+00   0.0000000000E+00   0.0000000000E+00   0.0000000000E+00   0.9988341624E+00   0.1447289777E-07   0.1447289777E-07   0.3034198592E-15  -0.3553825820E-16   0.5302012664E-16
   0.0000000000E+00   0.9951664724E+00  -0.2251380517E-17   0.0000000000E+00   0.4987950038E-02  -0.2683952516E-17   0.0000000000E+00  -0.9821477673E-02   0.4325719994E-18   0.0000000000E+00   0.0000000000E+00   0.0000000000E+00   0.0000000000E+00   0.0000000000E+00   0.0000000000E+00   0.9988341624E+00   0.1447289578E-07   0.1447289584E-07  -0.8896818858E-16   0.9252272523E-16   0.1003190097E-15
   0.0000000000E+00   0.0000000000E+00   0.9951664724E+00   0.0000000000E+00   0.0000000000E+00   0.4987950038E-02   0.0000000000E+00   0.0000000000E+00  -0.9821477673E-02   0.0000000000E+00   0.0000000000E+00   0.0000000000E+00   0.0000000000E+00   0.0000000000E+00   0.0000000000E+00   0.9988341624E+00   0.1447289704E-07   0.1447289706E-07  -0.3000577575E-16  -0.8176178409E-16  -0.2134260726E-15
   0.1010000000E+01   0.0000000000E+00   0.9951664724E+00  -0.1000000000E-01   0.0000000000E+00   0.4987950038E-02   0.2000000000E-01   0.0000000000E+00  -0.9821477673E-02   0.0000000000E+00   0.0000000000E+00   0.0000000000E+00   0.0000000000E+00   0.0000000000E+00   0.0000000000E+00   0.9988341624E+00   0.1447290070E-07   0.1447290068E-07  -0.2195553081E-15   0.5099503454E-16  -0.1018516453E-15
   0.1010000000E+01   0.9951664724E+00   0.9951664724E+00  -0.1000000000E-01   0.4987950038E-02   0.4987950038E-02   0.2000000000E-01  -0.9821477673E-02  -0.9821477673E-02   0.0000000000E+00   0.0000000000E+00   0.0000000000E+00   0.0000000000E+00   0.0000000000E+00   0.0000000000E+00   0.9988341623E+00   0.1447289889E-07   0.1447289869E-07  -0.2315402987E-15   0.7103648629E-16   0.1444786486E-15
   0.0000000000E+00   0.9951664724E+00   0.9951664724E+00   0.0000000000E+00   0.4987950038E-02   0.4987950038E-02   0.0000000000E+00  -0.9821477673E-02  -0.9821477673E-02   0.0000000000E+00   0.0000000000E+00   0.0000000000E+00   0.0000000000E+00   0.0000000000E+00   0.0000000000E+00   0.9988341623E+00   0.1447290330E-07   0.1447290304E-07  -0.3116639571E-16  -0.9672343890E-16  -0.9231827472E-16
   0.2020000000E+01   0.0000000000E+00   0.5515998284E-18  -0.2000000000E-01   0.0000000000E+00   0.9219102444E-18   0.4000000000E-01   0.0000000000E+00  -0.3703104160E-18   0.0000000000E+00   0.0000000000E+00   0.0000000000E+00   0.0000000000E+00   0.0000000000E+00   0.0000000000E+00   0.9988341625E+00   0.1447289587E-07   0.1447289594E-07   0.7774517896E-16   0.3981508953E-15  -0.1964384092E-15
   0.2020000000E+01   0.9951664724E+00  -0.3846203805E-17  -0.2000000000E-01   0.4987950038E-02  -0.6160790457E-17   0.4000000000E-01  -0.9821477673E-02   0.2314586652E-17   0.0000000000E+00   0.0000000000E+00   0.0000000000E+00   0.0000000000E+00   0.0000000000E+00   0.0000000000E+00   0.9988341624E+00   0.1447290544E-07   0.1447290575E-07  -0.3984772866E-17  -0.5217716646E-16   0.5318813299E-16
   0.2020000000E+01   0.0000000000E+00   0.9951664724E+00  -0.2000000000E-01   0.0000000000E+00   0.4987950038E-02   0.4000000000E-01   0.0000000000E+00  -0.9821477673E-02   0.0000000000E+00   0.0000000000E+00   0.0000000000E+00   0.0000000000E+00   0.0000000000E+00   0.0000000000E+00   0.9988341624E+00   0.1447290463E-07   0.1447290462E-07   0.4094854311E-16  -0.1647644970E-15   0.3045089726E-15
   0.2020000000E+01   0.9951664724E+00   0.9951664724E+00  -0.2000000000E-01   0.4987950038E-02   0.4987950038E-02   0.4000000000E-01  -0.9821477673E-02  -0.9821477673E-02   0.0000000000E+00   0.0000000000E+00   0.0000000000E+00   0.0000000000E+00   0.0000000000E+00   0.0000000000E+00   0.9988341622E+00   0.1447289995E-07   0.1447290018E-07  -0.4634839722E-16   0.1381830337E-16  -0.2222735872E-16
     1     2     3     4     5     6     7     8
     2     9    10     3     6    11    12     7
 VARIABLES = X,Y,Z,DU1,DU2,DU3,U1,U2,U3,e11,e22,e33,e12,e13,e23,S11,S22,S33,S12,S13,S23
 ZONE, T="0.9750D+00" F=FEPOINT, I=   12 J=    2 ET=BRICK
   0.0000000000E+00   0.0000000000E+00   0.0000000000E+00   0.0000000000E+00   0.0000000000E+00   0.0000000000E+00   0.0000000000E+00   0.0000000000E+00   0.0000000000E+00   0.0000000000E+00   0.0000000000E+00   0.0000000000E+00   0.0000000000E+00   0.0000000000E+00   0.0000000000E+00   0.8174753274E+00   0.1794358003E-14   0.2003240448E-14  -0.1103476993E-16  -0.2787569975E-16   0.4452397986E-17
   0.1005000000E+01   0.0000000000E+00  -0.6087654670E-18  -0.5000000000E-02   0.0000000000E+00   0.9737036529E-19   0.1000000000E-01   0.0000000000E+00  -0.7061358323E-18   0.0000000000E+00   0.0000000000E+00   0.0000000000E+00   0.0000000000E+00   0.0000000000E+00   0.0000000000E+00   0.8174753274E+00   0.1425538901E-14   0.1382985633E-14  -0.8132482617E-16  -0.2064370545E-15   0.9967928953E-16
   0.1005000000E+01   0.9976362459E+00  -0.3306677208E-19  -0.5000000000E-02   0.2469773523E-02   0.1399072147E-17   0.1000000000E-01  -0.4833527635E-02  -0.1432138919E-17   0.0000000000E+00   0.0000000000E+00   0.0000000000E+00   0.0000000000E+00   0.0000000000E+00   0.0000000000E+00   0.8174753273E+00  -0.6085945659E-15  -0.7874095892E-15  -0.2919120958E-16   0.3972227619E-15  -0.7444544465E-17
   0.0000000000E+00   0.9976362459E+00   0.7864678618E-18   0.0000000000E+00   0.2469773523E-02   0.3037848378E-17   0.0000000000E+00  -0.4833527635E-02  -0.2251380517E-17   0.0000000000E+00   0.0000000000E+00   0.0000000000E+00   0.0000000000E+00   0.0000000000E+00   0.0000000000E+00   0.8174753273E+00  -0.3907110150E-14  -0.3880252518E-14  -0.1997508990E-15  -0.1291285118E-15   0.9468387505E-16
   0.0000000000E+00   0.0000000000E+00   0.9976362459E+00   0.0000000000E+00   0.0000000000E+00   0.2469773523E-02   0.0000000000E+00   0.0000000000E+00  -0.4833527635E-02   0.0000000000E+00   0.0000000000E+00   0.0000000000E+00   0.0000000000E+00   0.0000000000E+00   0.0000000000E+00   0.8174753273E+00   0.1978987154E-16   0.5577688766E-16  -0.2880273567E-16   0.1076700599E-15   0.4863676599E-16
   0.1005000000E+01   0.0000000000E+00   0.9976362459E+00  -0.5000000000E-02   0.0000000000E+00   0.2469773523E-02   0.1000000000E-01   0.0000000000E+00  -0.4833527635E-02   0.0000000000E+00   0.0000000000E+00   0.0000000000E+00   0.0000000000E+00   0.0000000000E+00   0.0000000000E+00   0.8174753273E+00  -0.9300114900E-15  -0.9684760450E-15   0.2794631966E-15   0.4221128688E-17  -0.2160033444E-15
   0.1005000000E+01   0.9976362459E+00   0.9976362459E+00  -0.5000000000E-02   0.2469773523E-02   0.2469773523E-02   0.1000000000E-01  -0.4833527635E-02  -0.4833527635E-02   0.0000000000E+00   0.0000000000E+00   0.0000000000E+00   0.0000000000E+00   0.0000000000E+00   0.0000000000E+00   0.8174753272E+00   0.9063113376E-15   0.7315850276E-15   0.2876553115E-15   0.1742684443E-15   0.4790195032E-16
   0.0000000000E+00   0.9976362459E+00   0.9976362459E+00   0.0000000000E+00   0.2469773523E-02   0.2469773523E-02   0.0000000000E+00  -0.4833527635E-02  -0.4833527635E-02   0.0000000000E+00   0.0000000000E+00   0.0000000000E+00   0.0000000000E+00   0.0000000000E+00   0.0000000000E+00   0.8174753272E+00   0.3770083557E-14   0.3624071536E-14   0.9250759366E-16  -0.1874979110E-15  -0.1951820881E-15
   0.2010000000E+01   0.0000000000E+00  -0.2598435862E-17  -0.1000000000E-01   0.0000000000E+00  -0.3150035690E-17   0.2000000000E-01   0.0000000000E+00   0.5515998284E-18   0.0000000000E+00   0.0000000000E+00   0.0000000000E+00   0.0000000000E+00   0.0000000000E+00   0.0000000000E+00   0.8174753273E+00   0.2401612194E-15   0.7658399525E-15  -0.1309808415E-15   0.1920107480E-15   0.9420110973E-16
   0.2010000000E+01   0.9976362459E+00  -0.7776903938E-18  -0.1000000000E-01   0.2469773523E-02   0.3068513411E-17   0.2000000000E-01  -0.4833527635E-02  -0.3846203805E-17   0.0000000000E+00   0.0000000000E+00   0.0000000000E+00   0.0000000000E+00   0.0000000000E+00   0.0000000000E+00   0.8174753272E+00  -0.4275768992E-15  -0.2812282790E-15  -0.4849745913E-16  -0.7184643888E-15   0.1458729468E-15
   0.2010000000E+01   0.0000000000E+00   0.9976362459E+00  -0.1000000000E-01   0.0000000000E+00   0.2469773523E-02   0.2000000000E-01   0.0000000000E+00  -0.4833527635E-02   0.0000000000E+00   0.0000000000E+00   0.0000000000E+00   0.0000000000E+00   0.0000000000E+00   0.0000000000E+00   0.8174753272E+00   0.1507819986E-14   0.1781324450E-14   0.9094278389E-16  -0.4417692292E-16  -0.4033208267E-17
   0.2010000000E+01   0.9976362459E+00   0.9976362459E+00  -0.1000000000E-01   0.2469773523E-02   0.2469773523E-02   0.2000000000E-01  -0.4833527635E-02  -0.4833527635E-02   0.0000000000E+00   0.0000000000E+00   0.0000000000E+00   0.0000000000E+00   0.0000000000E+00   0.0000000000E+00   0.8174753272E+00  -0.9286534285E-15  -0.1034504852E-14  -0.7203869095E-16  -0.1191512025E-15  -0.2091658621E-15
     1     2     3     4     5     6     7     8
     2     9    10     3     6    11    12     7
 VARIABLES = X,Y,Z,DU1,DU2,DU3,U1,U2,U3,e11,e22,e33,e12,e13,e23,S11,S22,S33,S12,S13,S23
 ZONE, T="0.9875D+00" F=FEPOINT, I=   12 J=    2 ET=BRICK
   0.0000000000E+00   0.0000000000E+00   0.0000000000E+00   0.0000000000E+00   0.0000000000E+00   0.0000000000E+00   0.0000000000E+00   0.0000000000E+00   0.0000000000E+00   0.0000000000E+00   0.0000000000E+00   0.0000000000E+00   0.0000000000E+00   0.0000000000E+00   0.0000000000E+00   0.5917647484E+00   0.2663253391E-06   0.2663253389E-06   0.1848978252E-16  -0.1220415535E-15  -0.7351951409E-16
   0.1002500000E+01   0.0000000000E+00  -0.1105961089E-17  -0.2500000000E-02   0.0000000000E+00  -0.4971956221E-18   0.5000000000E-02   0.0000000000E+00  -0.6087654670E-18   0.0000000000E+00   0.0000000000E+00   0.0000000000E+00   0.0000000000E+00   0.0000000000E+00   0.0000000000E+00   0.5917647484E+00   0.2663253389E-06   0.2663253389E-06   0.1321667214E-15   0.1793450925E-15   0.6824765902E-16
   0.1002500000E+01   0.9988486275E+00  -0.4808302246E-18  -0.2500000000E-02   0.1212381659E-02  -0.4477634525E-18   0.5000000000E-02  -0.2363754112E-02  -0.3306677208E-19   0.0000000000E+00   0.0000000000E+00   0.0000000000E+00   0.0000000000E+00   0.0000000000E+00   0.0000000000E+00   0.5917647483E+00   0.2663253376E-06   0.2663253377E-06   0.1437263498E-15  -0.1658183049E-15   0.3532195948E-16
   0.0000000000E+00   0.9988486275E+00  -0.1212309714E-17   0.0000000000E+00   0.1212381659E-02  -0.1998777576E-17   0.0000000000E+00  -0.2363754112E-02   0.7864678618E-18   0.0000000000E+00   0.0000000000E+00   0.0000000000E+00   0.0000000000E+00   0.0000000000E+00   0.0000000000E+00   0.5917647483E+00   0.2663253380E-06   0.2663253380E-06   0.3035251162E-16   0.1105096998E-15  -0.1194473105E-15
   0.0000000000E+00   0.0000000000E+00   0.9988486275E+00   0.0000000000E+00   0.0000000000E+00   0.1212381659E-02   0.0000000000E+00   0.0000000000E+00  -0.2363754112E-02   0.0000000000E+00   0.0000000000E+00   0.0000000000E+00   0.0000000000E+00   0.0000000000E+00   0.0000000000E+00   0.5917647483E+00   0.2663253370E-06   0.2663253369E-06  -0.2723312296E-16   0.6525274717E-16  -0.1868575178E-16
   0.1002500000E+01   0.0000000000E+00   0.9988486275E+00  -0.2500000000E-02   0.0000000000E+00   0.1212381659E-02   0.5000000000E-02   0.0000000000E+00  -0.2363754112E-02   0.0000000000E+00   0.0000000000E+00   0.0000000000E+00   0.0000000000E+00   0.0000000000E+00   0.0000000000E+00   0.5917647483E+00   0.2663253380E-06   0.2663253380E-06   0.2171406333E-17   0.4963734128E-16  -0.1739110882E-16
   0.1002500000E+01   0.9988486275E+00   0.9988486275E+00  -0.2500000000E-02   0.1212381659E-02   0.1212381659E-02   0.5000000000E-02  -0.2363754112E-02  -0.2363754112E-02   0.0000000000E+00   0.0000000000E+00   0.0000000000E+00   0.0000000000E+00   0.0000000000E+00   0.0000000000E+00   0.5917647483E+00   0.2663253387E-06   0.2663253387E-06  -0.2953388239E-16   0.9748664336E-17  -0.2480521199E-16
   0.0000000000E+00   0.9988486275E+00   0.9988486275E+00   0.0000000000E+00   0.1212381659E-02   0.1212381659E-02   0.0000000000E+00  -0.2363754112E-02  -0.2363754112E-02   0.0000000000E+00   0.0000000000E+00   0.0000000000E+00   0.0000000000E+00   0.0000000000E+00   0.0000000000E+00   0.5917647483E+00   0.2663253389E-06   0.2663253390E-06  -0.1429027249E-16  -0.9387165121E-16   0.8998371209E-16
   0.2005000000E+01   0.0000000000E+00  -0.1332495454E-17  -0.5000000000E-02   0.0000000000E+00   0.1265940408E-17   0.1000000000E-01   0.0000000000E+00  -0.2598435862E-17   0.0000000000E+00   0.0000000000E+00   0.0000000000E+00   0.0000000000E+00   0.0000000000E+00   0.0000000000E+00   0.5917647484E+00   0.2663253385E-06   0.2663253385E-06  -0.8296903003E-17  -0.4111363660E-15  -0.6726778526E-17
   0.2005000000E+01   0.9988486275E+00  -0.1436099485E-17  -0.5000000000E-02   0.1212381659E-02  -0.6584090910E-18   0.1000000000E-01  -0.2363754112E-02  -0.7776903938E-18   0.0000000000E+00   0.0000000000E+00   0.0000000000E+00   0.0000000000E+00   0.0000000000E+00   0.0000000000E+00   0.5917647483E+00   0.2663253376E-06   0.2663253376E-06  -0.1602342995E-16   0.4576436800E-15  -0.3822481133E-16
   0.2005000000E+01   0.0000000000E+00   0.9988486275E+00  -0.5000000000E-02   0.0000000000E+00   0.1212381659E-02   0.1000000000E-01   0.0000000000E+00  -0.2363754112E-02   0.0000000000E+00   0.0000000000E+00   0.0000000000E+00   0.0000000000E+00   0.0000000000E+00   0.0000000000E+00   0.5917647483E+00   0.2663253379E-06   0.2663253380E-06  -0.8999554276E-16  -0.6116081757E-16   0.3671696970E-16
   0.2005000000E+01   0.9988486275E+00   0.9988486275E+00  -0.5000000000E-02   0.1212381659E-02   0.1212381659E-02   0.1000000000E-01  -0.2363754112E-02  -0.2363754112E-02   0.0000000000E+00   0.0000000000E+00   0.0000000000E+00   0.0000000000E+00   0.0000000000E+00   0.0000000000E+00   0.5917647482E+00   0.2663253380E-06   0.2663253381E-06   0.5833529590E-17  -0.1360498371E-15  -0.6696974103E-16
     1     2     3     4     5     6     7     8
     2     9    10     3     6    11    12     7
 VARIABLES = X,Y,Z,DU1,DU2,DU3,U1,U2,U3,e11,e22,e33,e12,e13,e23,S11,S22,S33,S12,S13,S23
 ZONE, T="0.1003D+01" F=FEPOINT, I=   12 J=    2 ET=BRICK
   0.0000000000E+00   0.0000000000E+00   0.0000000000E+00   0.0000000000E+00   0.0000000000E+00   0.0000000000E+00   0.0000000000E+00   0.0000000000E+00   0.0000000000E+00   0.0000000000E+00   0.0000000000E+00   0.0000000000E+00   0.0000000000E+00   0.0000000000E+00   0.0000000000E+00  -0.2645935495E+00  -0.9728344317E-12  -0.9727868441E-12  -0.2519820916E-16   0.3949783453E-16   0.6953862149E-16
   0.9993750000E+00   0.0000000000E+00   0.2626625559E-18  -0.3125000000E-02   0.0000000000E+00   0.1368623645E-17   0.2500000000E-02   0.0000000000E+00  -0.1105961089E-17   0.0000000000E+00   0.0000000000E+00   0.0000000000E+00   0.0000000000E+00   0.0000000000E+00   0.0000000000E+00  -0.2645935495E+00  -0.9734769839E-12  -0.9734202162E-12  -0.8133543893E-16  -0.1849739451E-15   0.7449987425E-16
   0.9993750000E+00   0.1000268401E+01   0.4831076510E-18  -0.3125000000E-02   0.1419773528E-02   0.9639378756E-18   0.2500000000E-02  -0.1151372453E-02  -0.4808302246E-18   0.0000000000E+00   0.0000000000E+00   0.0000000000E+00   0.0000000000E+00   0.0000000000E+00   0.0000000000E+00  -0.2645935495E+00  -0.9734799104E-12  -0.9735547292E-12  -0.2027742020E-15   0.3401394978E-15   0.2126815234E-16
   0.0000000000E+00   0.1000268401E+01   0.5247637843E-18   0.0000000000E+00   0.1419773528E-02   0.1737073499E-17   0.0000000000E+00  -0.1151372453E-02  -0.1212309714E-17   0.0000000000E+00   0.0000000000E+00   0.0000000000E+00   0.0000000000E+00   0.0000000000E+00   0.0000000000E+00  -0.2645935495E+00  -0.9737253364E-12  -0.9737788004E-12  -0.4061259900E-17  -0.4824942734E-16  -0.9720138185E-16
   0.0000000000E+00   0.0000000000E+00   0.1000268401E+01   0.0000000000E+00   0.0000000000E+00   0.1419773528E-02   0.0000000000E+00   0.0000000000E+00  -0.1151372453E-02   0.0000000000E+00   0.0000000000E+00   0.0000000000E+00   0.0000000000E+00   0.0000000000E+00   0.0000000000E+00  -0.2645935495E+00  -0.9740525593E-12  -0.9738455777E-12   0.1003452822E-16  -0.8421191092E-16   0.3163313064E-16
   0.9993750000E+00   0.0000000000E+00   0.1000268401E+01  -0.3125000000E-02   0.0000000000E+00   0.1419773528E-02   0.2500000000E-02   0.0000000000E+00  -0.1151372453E-02   0.0000000000E+00   0.0000000000E+00   0.0000000000E+00   0.0000000000E+00   0.0000000000E+00   0.0000000000E+00  -0.2645935495E+00  -0.9731591544E-12  -0.9730874848E-12   0.3166624146E-16   0.1579308681E-15  -0.5911170270E-16
   0.9993750000E+00   0.1000268401E+01   0.1000268401E+01  -0.3125000000E-02   0.1419773528E-02   0.1419773528E-02   0.2500000000E-02  -0.1151372453E-02  -0.1151372453E-02   0.0000000000E+00   0.0000000000E+00   0.0000000000E+00   0.0000000000E+00   0.0000000000E+00   0.0000000000E+00  -0.2645935495E+00  -0.9731621125E-12  -0.9732220293E-12   0.2730990885E-16  -0.1732150220E-15   0.5943262286E-16
   0.0000000000E+00   0.1000268401E+01   0.1000268401E+01   0.0000000000E+00   0.1419773528E-02   0.1419773528E-02   0.0000000000E+00  -0.1151372453E-02  -0.1151372453E-02   0.0000000000E+00   0.0000000000E+00   0.0000000000E+00   0.0000000000E+00   0.0000000000E+00   0.0000000000E+00  -0.2645935495E+00  -0.9729918671E-12  -0.9728859372E-12   0.6697649500E-16   0.6304381740E-16   0.2417051104E-16
   0.1998750000E+01   0.0000000000E+00   0.7865050780E-18  -0.6250000000E-02   0.0000000000E+00   0.2119000532E-17   0.5000000000E-02   0.0000000000E+00  -0.1332495454E-17   0.0000000000E+00   0.0000000000E+00   0.0000000000E+00   0.0000000000E+00   0.0000000000E+00   0.0000000000E+00  -0.2645935495E+00  -0.9739209638E-12  -0.9739771551E-12   0.4369650276E-16   0.3138014786E-15  -0.1011008300E-15
   0.1998750000E+01   0.1000268401E+01   0.2088327040E-18  -0.6250000000E-02   0.1419773528E-02   0.1644932189E-17   0.5000000000E-02  -0.1151372453E-02  -0.1436099485E-17   0.0000000000E+00   0.0000000000E+00   0.0000000000E+00   0.0000000000E+00   0.0000000000E+00   0.0000000000E+00  -0.2645935495E+00  -0.9724817718E-12  -0.9725074284E-12   0.1612227527E-16  -0.5283597110E-15  -0.1036668747E-15
   0.1998750000E+01   0.0000000000E+00   0.1000268401E+01  -0.6250000000E-02   0.0000000000E+00   0.1419773528E-02   0.5000000000E-02   0.0000000000E+00  -0.1151372453E-02   0.0000000000E+00   0.0000000000E+00   0.0000000000E+00   0.0000000000E+00   0.0000000000E+00   0.0000000000E+00  -0.2645935495E+00  -0.9735609385E-12  -0.9733614079E-12   0.6150234382E-16  -0.5798640252E-15   0.1012327077E-16
   0.1998750000E+01   0.1000268401E+01   0.1000268401E+01  -0.6250000000E-02   0.1419773528E-02   0.1419773528E-02   0.5000000000E-02  -0.1151372453E-02  -0.1151372453E-02   0.0000000000E+00   0.0000000000E+00   0.0000000000E+00   0.0000000000E+00   0.0000000000E+00   0.0000000000E+00  -0.2645935494E+00  -0.9740733008E-12  -0.9738432355E-12   0.3936825662E-16   0.3167836730E-15   0.1188352928E-15
     1     2     3     4     5     6     7     8
     2     9    10     3     6    11    12     7
 VARIABLES = X,Y,Z,DU1,DU2,DU3,U1,U2,U3,e11,e22,e33,e12,e13,e23,S11,S22,S33,S12,S13,S23
 ZONE, T="0.1019D+01" F=FEPOINT, I=   12 J=    2 ET=BRICK
   0.0000000000E+00   0.0000000000E+00   0.0000000000E+00   0.0000000000E+00   0.0000000000E+00   0.0000000000E+00   0.0000000000E+00   0.0000000000E+00   0.0000000000E+00   0.0000000000E+00   0.0000000000E+00   0.0000000000E+00   0.0000000000E+00   0.0000000000E+00   0.0000000000E+00  -0.7214679913E+00  -0.1901052204E-13  -0.1889024864E-13  -0.2353618891E-17   0.2567334972E-16  -0.4183103771E-16
   0.9962500000E+00   0.0000000000E+00   0.7385900806E-19  -0.3125000000E-02   0.0000000000E+00  -0.1888035478E-18  -0.6250000000E-03   0.0000000000E+00   0.2626625559E-18   0.0000000000E+00   0.0000000000E+00   0.0000000000E+00   0.0000000000E+00   0.0000000000E+00   0.0000000000E+00  -0.7214679913E+00  -0.1951460138E-13  -0.1955342334E-13  -0.6713962287E-16  -0.1176813875E-15  -0.2846201293E-16
   0.9962500000E+00   0.1001754755E+01  -0.2762365241E-18  -0.3125000000E-02   0.1486354260E-02  -0.7593441751E-18  -0.6250000000E-03   0.2684010751E-03   0.4831076510E-18   0.0000000000E+00   0.0000000000E+00   0.0000000000E+00   0.0000000000E+00   0.0000000000E+00   0.0000000000E+00  -0.7214679912E+00  -0.2012430172E-13  -0.2008027861E-13   0.2790202730E-17   0.3060743147E-16  -0.4052298657E-16
   0.0000000000E+00   0.1001754755E+01  -0.5227681426E-18   0.0000000000E+00   0.1486354260E-02  -0.1047531927E-17   0.0000000000E+00   0.2684010751E-03   0.5247637843E-18   0.0000000000E+00   0.0000000000E+00   0.0000000000E+00   0.0000000000E+00   0.0000000000E+00   0.0000000000E+00  -0.7214679912E+00  -0.2009229772E-13  -0.1999784339E-13   0.6019383418E-16   0.1387705672E-16   0.4531637602E-16
   0.0000000000E+00   0.0000000000E+00   0.1001754755E+01   0.0000000000E+00   0.0000000000E+00   0.1486354260E-02   0.0000000000E+00   0.0000000000E+00   0.2684010751E-03   0.0000000000E+00   0.0000000000E+00   0.0000000000E+00   0.0000000000E+00   0.0000000000E+00   0.0000000000E+00  -0.7214679912E+00  -0.1983675003E-13  -0.1985305032E-13   0.1491071944E-17  -0.3965663283E-16  -0.2476851995E-16
   0.9962500000E+00   0.0000000000E+00   0.1001754755E+01  -0.3125000000E-02   0.0000000000E+00   0.1486354260E-02  -0.6250000000E-03   0.0000000000E+00   0.2684010751E-03   0.0000000000E+00   0.0000000000E+00   0.0000000000E+00   0.0000000000E+00   0.0000000000E+00   0.0000000000E+00  -0.7214679912E+00  -0.2081226113E-13  -0.2084207442E-13  -0.3706381372E-16  -0.3086975843E-16   0.6366428609E-18
   0.9962500000E+00   0.1001754755E+01   0.1001754755E+01  -0.3125000000E-02   0.1486354260E-02   0.1486354260E-02  -0.6250000000E-03   0.2684010751E-03   0.2684010751E-03   0.0000000000E+00   0.0000000000E+00   0.0000000000E+00   0.0000000000E+00   0.0000000000E+00   0.0000000000E+00  -0.7214679911E+00  -0.1900946638E-13  -0.1895643460E-13  -0.1095284663E-15  -0.4685623460E-16   0.1557693769E-16
   0.0000000000E+00   0.1001754755E+01   0.1001754755E+01   0.0000000000E+00   0.1486354260E-02   0.1486354260E-02   0.0000000000E+00   0.2684010751E-03   0.2684010751E-03   0.0000000000E+00   0.0000000000E+00   0.0000000000E+00   0.0000000000E+00   0.0000000000E+00   0.0000000000E+00  -0.7214679911E+00  -0.2023543257E-13  -0.2027755192E-13  -0.4595028155E-16   0.4905183435E-16   0.1023104364E-15
   0.1992500000E+01   0.0000000000E+00   0.2998010992E-18  -0.6250000000E-02   0.0000000000E+00  -0.4867039787E-18  -0.1250000000E-02   0.0000000000E+00   0.7865050780E-18   0.0000000000E+00   0.0000000000E+00   0.0000000000E+00   0.0000000000E+00   0.0000000000E+00   0.0000000000E+00  -0.7214679913E+00  -0.2035561127E-13  -0.2046826964E-13   0.2531369753E-16  -0.2381293739E-16   0.1800514232E-16
   0.1992500000E+01   0.1001754755E+01   0.3482202100E-18  -0.6250000000E-02   0.1486354260E-02   0.1393875059E-18  -0.1250000000E-02   0.2684010751E-03   0.2088327040E-18   0.0000000000E+00   0.0000000000E+00   0.0000000000E+00   0.0000000000E+00   0.0000000000E+00   0.0000000000E+00  -0.7214679912E+00  -0.2132664218E-13  -0.2133305027E-13   0.3873286732E-16   0.1556993841E-15  -0.5691297009E-16
   0.1992500000E+01   0.0000000000E+00   0.1001754755E+01  -0.6250000000E-02   0.0000000000E+00   0.1486354260E-02  -0.1250000000E-02   0.0000000000E+00   0.2684010751E-03   0.0000000000E+00   0.0000000000E+00   0.0000000000E+00   0.0000000000E+00   0.0000000000E+00   0.0000000000E+00  -0.7214679912E+00  -0.2154603042E-13  -0.2158935671E-13   0.1639542395E-16  -0.4160988586E-16   0.2777153823E-16
   0.1992500000E+01   0.1001754755E+01   0.1001754755E+01  -0.6250000000E-02   0.1486354260E-02   0.1486354260E-02  -0.1250000000E-02   0.2684010751E-03   0.2684010751E-03   0.0000000000E+00   0.0000000000E+00   0.0000000000E+00   0.0000000000E+00   0.0000000000E+00   0.0000000000E+00  -0.7214679911E+00  -0.1803517180E-13  -0.1797224782E-13  -0.6542117670E-17   0.1919112596E-16   0.4076092054E-16
     1     2     3     4     5     6     7     8
     2     9    10     3     6    11    12     7
 VARIABLES = X,Y,Z,DU1,DU2,DU3,U1,U2,U3,e11,e22,e33,e12,e13,e23,S11,S22,S33,S12,S13,S23
 ZONE, T="0.1038D+01" F=FEPOINT, I=   12 J=    2 ET=BRICK
   0.0000000000E+00   0.0000000000E+00   0.0000000000E+00   0.0000000000E+00   0.0000000000E+00   0.0000000000E+00   0.0000000000E+00   0.0000000000E+00   0.0000000000E+00   0.0000000000E+00   0.0000000000E+00   0.0000000000E+00   0.0000000000E+00   0.0000000000E+00   0.0000000000E+00  -0.9472695002E+00  -0.2817556457E-09  -0.2817556503E-09  -0.6782021317E-17   0.5022607899E-16  -0.2979861985E-16
   0.9923437500E+00   0.0000000000E+00   0.9273239249E-18  -0.3906250000E-02   0.0000000000E+00   0.8534649168E-18  -0.3750000000E-02   0.0000000000E+00   0.7385900806E-19   0.0000000000E+00   0.0000000000E+00   0.0000000000E+00   0.0000000000E+00   0.0000000000E+00   0.0000000000E+00  -0.9472695002E+00  -0.2817557212E-09  -0.2817557121E-09  -0.3970747901E-17  -0.5366955530E-16  -0.2448933494E-17
   0.9923437500E+00   0.1003670247E+01   0.7395633656E-18  -0.3906250000E-02   0.1915491415E-02   0.1015799890E-17  -0.3750000000E-02   0.1754755335E-02  -0.2762365241E-18   0.0000000000E+00   0.0000000000E+00   0.0000000000E+00   0.0000000000E+00   0.0000000000E+00   0.0000000000E+00  -0.9472695001E+00  -0.2817558586E-09  -0.2817558611E-09  -0.1859532531E-16  -0.2185398628E-16  -0.2337686446E-16
   0.0000000000E+00   0.1003670247E+01  -0.5302731144E-18   0.0000000000E+00   0.1915491415E-02  -0.7504971800E-20   0.0000000000E+00   0.1754755335E-02  -0.5227681426E-18   0.0000000000E+00   0.0000000000E+00   0.0000000000E+00   0.0000000000E+00   0.0000000000E+00   0.0000000000E+00  -0.9472695001E+00  -0.2817555770E-09  -0.2817555757E-09   0.1757171093E-16   0.4567771353E-16   0.3694929775E-16
   0.0000000000E+00   0.0000000000E+00   0.1003670247E+01   0.0000000000E+00   0.0000000000E+00   0.1915491415E-02   0.0000000000E+00   0.0000000000E+00   0.1754755335E-02   0.0000000000E+00   0.0000000000E+00   0.0000000000E+00   0.0000000000E+00   0.0000000000E+00   0.0000000000E+00  -0.9472695001E+00  -0.2817575236E-09  -0.2817575281E-09   0.2277193828E-17   0.4285501747E-16   0.4515663816E-18
   0.9923437500E+00   0.0000000000E+00   0.1003670247E+01  -0.3906250000E-02   0.0000000000E+00   0.1915491415E-02  -0.3750000000E-02   0.0000000000E+00   0.1754755335E-02   0.0000000000E+00   0.0000000000E+00   0.0000000000E+00   0.0000000000E+00   0.0000000000E+00   0.0000000000E+00  -0.9472695001E+00  -0.2817564723E-09  -0.2817564633E-09  -0.4823547811E-16  -0.1869779916E-16  -0.1893433943E-16
   0.9923437500E+00   0.1003670247E+01   0.1003670247E+01  -0.3906250000E-02   0.1915491415E-02   0.1915491415E-02  -0.3750000000E-02   0.1754755335E-02   0.1754755335E-02   0.0000000000E+00   0.0000000000E+00   0.0000000000E+00   0.0000000000E+00   0.0000000000E+00   0.0000000000E+00  -0.9472695000E+00  -0.2817566098E-09  -0.2817566122E-09  -0.2875570681E-16  -0.3979970480E-16   0.2856691807E-16
   0.0000000000E+00   0.1003670247E+01   0.1003670247E+01   0.0000000000E+00   0.1915491415E-02   0.1915491415E-02   0.0000000000E+00   0.1754755335E-02   0.1754755335E-02   0.0000000000E+00   0.0000000000E+00   0.0000000000E+00   0.0000000000E+00   0.0000000000E+00   0.0000000000E+00  -0.9472695000E+00  -0.2817574548E-09  -0.2817574536E-09   0.5780965200E-17   0.8396459454E-16   0.2609489915E-16
   0.1984687500E+01   0.0000000000E+00   0.2365795178E-17  -0.7812500000E-02   0.0000000000E+00   0.2065994078E-17  -0.7500000000E-02   0.0000000000E+00   0.2998010992E-18   0.0000000000E+00   0.0000000000E+00   0.0000000000E+00   0.0000000000E+00   0.0000000000E+00   0.0000000000E+00  -0.9472695002E+00  -0.2817568228E-09  -0.2817568859E-09   0.1205671879E-16   0.2917383150E-17   0.4402460692E-17
   0.1984687500E+01   0.1003670247E+01   0.2278728276E-17  -0.7812500000E-02   0.1915491415E-02   0.1930508066E-17  -0.7500000000E-02   0.1754755335E-02   0.3482202100E-18   0.0000000000E+00   0.0000000000E+00   0.0000000000E+00   0.0000000000E+00   0.0000000000E+00   0.0000000000E+00  -0.9472695001E+00  -0.2817558654E-09  -0.2817558485E-09   0.1552682253E-16  -0.1583459059E-16  -0.8146747635E-17
   0.1984687500E+01   0.0000000000E+00   0.1003670247E+01  -0.7812500000E-02   0.0000000000E+00   0.1915491415E-02  -0.7500000000E-02   0.0000000000E+00   0.1754755335E-02   0.0000000000E+00   0.0000000000E+00   0.0000000000E+00   0.0000000000E+00   0.0000000000E+00   0.0000000000E+00  -0.9472695001E+00  -0.2817564472E-09  -0.2817565103E-09  -0.8057063088E-17   0.7490809119E-16   0.1535194238E-17
   0.1984687500E+01   0.1003670247E+01   0.1003670247E+01  -0.7812500000E-02   0.1915491415E-02   0.1915491415E-02  -0.7500000000E-02   0.1754755335E-02   0.1754755335E-02   0.0000000000E+00   0.0000000000E+00   0.0000000000E+00   0.0000000000E+00   0.0000000000E+00   0.0000000000E+00  -0.9472695000E+00  -0.2817554898E-09  -0.2817554728E-09  -0.5687681985E-16   0.6662507003E-16   0.2042342429E-17
     1     2     3     4     5     6     7     8
     2     9    10     3     6    11    12     7
 VARIABLES = X,Y,Z,DU1,DU2,DU3,U1,U2,U3,e11,e22,e33,e12,e13,e23,S11,S22,S33,S12,S13,S23
 ZONE, T="0.1063D+01" F=FEPOINT, I=   12 J=    2 ET=BRICK
   0.0000000000E+00   0.0000000000E+00   0.0000000000E+00   0.0000000000E+00   0.0000000000E+00   0.0000000000E+00   0.0000000000E+00   0.0000000000E+00   0.0000000000E+00   0.0000000000E+00   0.0000000000E+00   0.0000000000E+00   0.0000000000E+00   0.0000000000E+00   0.0000000000E+00  -0.1021954194E+01  -0.1268316311E-12  -0.1267488588E-12   0.1098115118E-17  -0.5081480365E-17   0.2432227483E-16
   0.9874609375E+00   0.0000000000E+00   0.7687479205E-19  -0.4882812500E-02   0.0000000000E+00  -0.8504491328E-18  -0.7656250000E-02   0.0000000000E+00   0.9273239249E-18   0.0000000000E+00   0.0000000000E+00   0.0000000000E+00   0.0000000000E+00   0.0000000000E+00   0.0000000000E+00  -0.1021954194E+01  -0.1296375805E-12  -0.1296906624E-12  -0.4939790954E-16   0.9699199860E-16  -0.6327031780E-16
   0.9874609375E+00   0.1006099206E+01  -0.1490808871E-17  -0.4882812500E-02   0.2428958801E-02  -0.2230372237E-17  -0.7656250000E-02   0.3670246750E-02   0.7395633656E-18   0.0000000000E+00   0.0000000000E+00   0.0000000000E+00   0.0000000000E+00   0.0000000000E+00   0.0000000000E+00  -0.1021954193E+01  -0.1300155138E-12  -0.1299711328E-12  -0.2285272532E-16  -0.1186727899E-16  -0.3870558509E-16
   0.0000000000E+00   0.1006099206E+01   0.4318813973E-18   0.0000000000E+00   0.2428958801E-02   0.9621545117E-18   0.0000000000E+00   0.3670246750E-02  -0.5302731144E-18   0.0000000000E+00   0.0000000000E+00   0.0000000000E+00   0.0000000000E+00   0.0000000000E+00   0.0000000000E+00  -0.1021954193E+01  -0.1312470793E-12  -0.1312129829E-12   0.4364001683E-16  -0.5112609611E-16  -0.7972448155E-19
   0.0000000000E+00   0.0000000000E+00   0.1006099206E+01   0.0000000000E+00   0.0000000000E+00   0.2428958801E-02   0.0000000000E+00   0.0000000000E+00   0.3670246750E-02   0.0000000000E+00   0.0000000000E+00   0.0000000000E+00   0.0000000000E+00   0.0000000000E+00   0.0000000000E+00  -0.1021954193E+01  -0.1265463894E-12  -0.1264636172E-12   0.1405521372E-16  -0.7267523408E-16  -0.3853702613E-16
   0.9874609375E+00   0.0000000000E+00   0.1006099206E+01  -0.4882812500E-02   0.0000000000E+00   0.2428958801E-02  -0.7656250000E-02   0.0000000000E+00   0.3670246750E-02   0.0000000000E+00   0.0000000000E+00   0.0000000000E+00   0.0000000000E+00   0.0000000000E+00   0.0000000000E+00  -0.1021954193E+01  -0.1302080638E-12  -0.1302611457E-12  -0.1752516379E-15   0.6148078278E-16   0.6826674887E-16
   0.9874609375E+00   0.1006099206E+01   0.1006099206E+01  -0.4882812500E-02   0.2428958801E-02   0.2428958801E-02  -0.7656250000E-02   0.3670246750E-02   0.3670246750E-02   0.0000000000E+00   0.0000000000E+00   0.0000000000E+00   0.0000000000E+00   0.0000000000E+00   0.0000000000E+00  -0.1021954193E+01  -0.1278864408E-12  -0.1278420598E-12  -0.1236693913E-15  -0.5344218273E-16  -0.2040483367E-16
   0.0000000000E+00   0.1006099206E+01   0.1006099206E+01   0.0000000000E+00   0.2428958801E-02   0.2428958801E-02   0.0000000000E+00   0.3670246750E-02   0.3670246750E-02   0.0000000000E+00   0.0000000000E+00   0.0000000000E+00   0.0000000000E+00   0.0000000000E+00   0.0000000000E+00  -0.1021954193E+01  -0.1323116157E-12  -0.1322775193E-12   0.6198482129E-17   0.3147445041E-16  -0.3839770046E-16
   0.1974921875E+01   0.0000000000E+00  -0.8718841469E-19  -0.9765625000E-02   0.0000000000E+00  -0.2452983592E-17  -0.1531250000E-01   0.0000000000E+00   0.2365795178E-17   0.0000000000E+00   0.0000000000E+00   0.0000000000E+00   0.0000000000E+00   0.0000000000E+00   0.0000000000E+00  -0.1021954193E+01  -0.1334069978E-12  -0.1334834476E-12  -0.2582139813E-16  -0.4044834554E-16  -0.3385858950E-16
   0.1974921875E+01   0.1006099206E+01  -0.1957538323E-17  -0.9765625000E-02   0.2428958801E-02  -0.4236266599E-17  -0.1531250000E-01   0.3670246750E-02   0.2278728276E-17   0.0000000000E+00   0.0000000000E+00   0.0000000000E+00   0.0000000000E+00   0.0000000000E+00   0.0000000000E+00  -0.1021954193E+01  -0.1322972662E-12  -0.1322727412E-12  -0.9618343722E-16   0.4602284993E-16  -0.2517593828E-16
   0.1974921875E+01   0.0000000000E+00   0.1006099206E+01  -0.9765625000E-02   0.0000000000E+00   0.2428958801E-02  -0.1531250000E-01   0.0000000000E+00   0.3670246750E-02   0.0000000000E+00   0.0000000000E+00   0.0000000000E+00   0.0000000000E+00   0.0000000000E+00   0.0000000000E+00  -0.1021954193E+01  -0.1347809713E-12  -0.1348574210E-12   0.4771081784E-16  -0.1022916405E-15   0.3557521778E-17
   0.1974921875E+01   0.1006099206E+01   0.1006099206E+01  -0.9765625000E-02   0.2428958801E-02   0.2428958801E-02  -0.1531250000E-01   0.3670246750E-02   0.3670246750E-02   0.0000000000E+00   0.0000000000E+00   0.0000000000E+00   0.0000000000E+00   0.0000000000E+00   0.0000000000E+00  -0.1021954193E+01  -0.1271695267E-12  -0.1271450017E-12   0.1125727889E-15   0.3336639775E-17   0.1261143644E-15
     1     2     3     4     5     6     7     8
     2     9    10     3     6    11    12     7
 VARIABLES = X,Y,Z,DU1,DU2,DU3,U1,U2,U3,e11,e22,e33,e12,e13,e23,S11,S22,S33,S12,S13,S23
 ZONE, T="0.1093D+01" F=FEPOINT, I=   12 J=    2 ET=BRICK
   0.0000000000E+00   0.0000000000E+00   0.0000000000E+00   0.0000000000E+00   0.0000000000E+00   0.0000000000E+00   0.0000000000E+00   0.0000000000E+00   0.0000000000E+00   0.0000000000E+00   0.0000000000E+00   0.0000000000E+00   0.0000000000E+00   0.0000000000E+00   0.0000000000E+00  -0.1063590425E+01  -0.3291914800E-13  -0.3277094121E-13  -0.4614161635E-17   0.7297289043E-16  -0.2169129543E-16
   0.9813574219E+00   0.0000000000E+00   0.3681015133E-17  -0.6103515625E-02   0.0000000000E+00   0.3604140341E-17  -0.1253906250E-01   0.0000000000E+00   0.7687479205E-19   0.0000000000E+00   0.0000000000E+00   0.0000000000E+00   0.0000000000E+00   0.0000000000E+00   0.0000000000E+00  -0.1063590425E+01  -0.3306175090E-13  -0.3307065276E-13   0.1923612022E-16  -0.2579120680E-16  -0.3880460375E-16
   0.9813574219E+00   0.1009144024E+01   0.1405128162E-17  -0.6103515625E-02   0.3044818441E-02   0.2895937033E-17  -0.1253906250E-01   0.6099205551E-02  -0.1490808871E-17   0.0000000000E+00   0.0000000000E+00   0.0000000000E+00   0.0000000000E+00   0.0000000000E+00   0.0000000000E+00  -0.1063590425E+01  -0.2794757538E-13  -0.2795646864E-13   0.4679742832E-16   0.2478751229E-16   0.6469056679E-17
   0.0000000000E+00   0.1009144024E+01  -0.2351746007E-17   0.0000000000E+00   0.3044818441E-02  -0.2783627404E-17   0.0000000000E+00   0.6099205551E-02   0.4318813973E-18   0.0000000000E+00   0.0000000000E+00   0.0000000000E+00   0.0000000000E+00   0.0000000000E+00   0.0000000000E+00  -0.1063590425E+01  -0.3218419347E-13  -0.3203596520E-13   0.2372421884E-16   0.8600028026E-17  -0.2846431947E-16
   0.0000000000E+00   0.0000000000E+00   0.1009144024E+01   0.0000000000E+00   0.0000000000E+00   0.3044818441E-02   0.0000000000E+00   0.0000000000E+00   0.6099205551E-02   0.0000000000E+00   0.0000000000E+00   0.0000000000E+00   0.0000000000E+00   0.0000000000E+00   0.0000000000E+00  -0.1063590425E+01  -0.2402317322E-13  -0.2417577969E-13  -0.2695837527E-17   0.6894776656E-16  -0.1194446794E-15
   0.9813574219E+00   0.0000000000E+00   0.1009144024E+01  -0.6103515625E-02   0.0000000000E+00   0.3044818441E-02  -0.1253906250E-01   0.0000000000E+00   0.6099205551E-02   0.0000000000E+00   0.0000000000E+00   0.0000000000E+00   0.0000000000E+00   0.0000000000E+00   0.0000000000E+00  -0.1063590425E+01  -0.2752963622E-13  -0.2755392450E-13  -0.6953919143E-16  -0.7784344784E-16  -0.5700029396E-16
   0.9813574219E+00   0.1009144024E+01   0.1009144024E+01  -0.6103515625E-02   0.3044818441E-02   0.3044818441E-02  -0.1253906250E-01   0.6099205551E-02   0.6099205551E-02   0.0000000000E+00   0.0000000000E+00   0.0000000000E+00   0.0000000000E+00   0.0000000000E+00   0.0000000000E+00  -0.1063590425E+01  -0.3270129873E-13  -0.3272561908E-13  -0.6247254581E-16   0.2187816704E-17   0.2644650007E-16
   0.0000000000E+00   0.1009144024E+01   0.1009144024E+01   0.0000000000E+00   0.3044818441E-02   0.3044818441E-02   0.0000000000E+00   0.6099205551E-02   0.6099205551E-02   0.0000000000E+00   0.0000000000E+00   0.0000000000E+00   0.0000000000E+00   0.0000000000E+00   0.0000000000E+00  -0.1063590425E+01  -0.3372341232E-13  -0.3387609896E-13  -0.1531931359E-16   0.2699601714E-16   0.1998299063E-15
   0.1962714844E+01   0.0000000000E+00   0.5642489837E-17  -0.1220703125E-01   0.0000000000E+00   0.5729678251E-17  -0.2507812500E-01   0.0000000000E+00  -0.8718841469E-19   0.0000000000E+00   0.0000000000E+00   0.0000000000E+00   0.0000000000E+00   0.0000000000E+00   0.0000000000E+00  -0.1063590425E+01  -0.3860772839E-13  -0.3857453396E-13  -0.4895604617E-16   0.7769783162E-16   0.1237036530E-16
   0.1962714844E+01   0.1009144024E+01   0.6291065777E-17  -0.1220703125E-01   0.3044818441E-02   0.8248604100E-17  -0.2507812500E-01   0.6099205551E-02  -0.1957538323E-17   0.0000000000E+00   0.0000000000E+00   0.0000000000E+00   0.0000000000E+00   0.0000000000E+00   0.0000000000E+00  -0.1063590425E+01  -0.2911433188E-13  -0.2908114175E-13  -0.6666270669E-16  -0.1319407922E-15   0.5531164992E-16
   0.1962714844E+01   0.0000000000E+00   0.1009144024E+01  -0.1220703125E-01   0.0000000000E+00   0.3044818441E-02  -0.2507812500E-01   0.0000000000E+00   0.6099205551E-02   0.0000000000E+00   0.0000000000E+00   0.0000000000E+00   0.0000000000E+00   0.0000000000E+00   0.0000000000E+00  -0.1063590425E+01  -0.2563277157E-13  -0.2572789964E-13  -0.5240219244E-17   0.1315758746E-15   0.1721590195E-17
   0.1962714844E+01   0.1009144024E+01   0.1009144024E+01  -0.1220703125E-01   0.3044818441E-02   0.3044818441E-02  -0.2507812500E-01   0.6099205551E-02   0.6099205551E-02   0.0000000000E+00   0.0000000000E+00   0.0000000000E+00   0.0000000000E+00   0.0000000000E+00   0.0000000000E+00  -0.1063590425E+01  -0.2627585750E-13  -0.2637096953E-13   0.2554484294E-16  -0.6314285630E-16   0.3755748815E-16
     1     2     3     4     5     6     7     8
     2     9    10     3     6    11    12     7
 VARIABLES = X,Y,Z,DU1,DU2,DU3,U1,U2,U3,e11,e22,e33,e12,e13,e23,S11,S22,S33,S12,S13,S23
 ZONE, T="0.1131D+01" F=FEPOINT, I=   12 J=    2 ET=BRICK
   0.0000000000E+00   0.0000000000E+00   0.0000000000E+00   0.0000000000E+00   0.0000000000E+00   0.0000000000E+00   0.0000000000E+00   0.0000000000E+00   0.0000000000E+00   0.0000000000E+00   0.0000000000E+00   0.0000000000E+00   0.0000000000E+00   0.0000000000E+00   0.0000000000E+00  -0.1100896751E+01  -0.1320870720E-13  -0.1326836443E-13   0.8545939061E-17  -0.1902307458E-16  -0.4313932620E-16
   0.9737280273E+00   0.0000000000E+00  -0.4180128764E-19  -0.7629394531E-02   0.0000000000E+00  -0.3722816421E-17  -0.1864257813E-01   0.0000000000E+00   0.3681015133E-17   0.0000000000E+00   0.0000000000E+00   0.0000000000E+00   0.0000000000E+00   0.0000000000E+00   0.0000000000E+00  -0.1100896751E+01  -0.9569226051E-14  -0.9438615193E-14  -0.2309784932E-16  -0.3632637259E-16  -0.3866499405E-17
   0.9737280273E+00   0.1012952504E+01   0.1800459645E-18  -0.7629394531E-02   0.3808479545E-02  -0.1225082197E-17  -0.1864257813E-01   0.9144023992E-02   0.1405128162E-17   0.0000000000E+00   0.0000000000E+00   0.0000000000E+00   0.0000000000E+00   0.0000000000E+00   0.0000000000E+00  -0.1100896751E+01  -0.1536543957E-13  -0.1536543957E-13  -0.2039883483E-16   0.1645828410E-16   0.1998021605E-16
   0.0000000000E+00   0.1012952504E+01  -0.6495711378E-18   0.0000000000E+00   0.3808479545E-02   0.1702174869E-17   0.0000000000E+00   0.9144023992E-02  -0.2351746007E-17   0.0000000000E+00   0.0000000000E+00   0.0000000000E+00   0.0000000000E+00   0.0000000000E+00   0.0000000000E+00  -0.1100896751E+01  -0.7718298582E-14  -0.7639629376E-14  -0.5129037123E-16   0.5562658715E-16  -0.4061436040E-16
   0.0000000000E+00   0.0000000000E+00   0.1012952504E+01   0.0000000000E+00   0.0000000000E+00   0.3808479545E-02   0.0000000000E+00   0.0000000000E+00   0.9144023992E-02   0.0000000000E+00   0.0000000000E+00   0.0000000000E+00   0.0000000000E+00   0.0000000000E+00   0.0000000000E+00  -0.1100896751E+01  -0.1251992415E-13  -0.1254100350E-13  -0.1610149010E-16   0.6693513381E-16   0.1012216066E-15
   0.9737280273E+00   0.0000000000E+00   0.1012952504E+01  -0.7629394531E-02   0.0000000000E+00   0.3808479545E-02  -0.1864257813E-01   0.0000000000E+00   0.9144023992E-02   0.0000000000E+00   0.0000000000E+00   0.0000000000E+00   0.0000000000E+00   0.0000000000E+00   0.0000000000E+00  -0.1100896751E+01  -0.9061499571E-14  -0.9061499571E-14   0.3359949459E-16  -0.8489014343E-16  -0.6005095179E-17
   0.9737280273E+00   0.1012952504E+01   0.1012952504E+01  -0.7629394531E-02   0.3808479545E-02   0.3808479545E-02  -0.1864257813E-01   0.9144023992E-02   0.9144023992E-02   0.0000000000E+00   0.0000000000E+00   0.0000000000E+00   0.0000000000E+00   0.0000000000E+00   0.0000000000E+00  -0.1100896751E+01  -0.9454046343E-14  -0.9584657201E-14   0.1282227782E-16   0.9847107408E-16   0.3505238192E-16
   0.0000000000E+00   0.1012952504E+01   0.1012952504E+01   0.0000000000E+00   0.3808479545E-02   0.3808479545E-02   0.0000000000E+00   0.9144023992E-02   0.9144023992E-02   0.0000000000E+00   0.0000000000E+00   0.0000000000E+00   0.0000000000E+00   0.0000000000E+00   0.0000000000E+00  -0.1100896751E+01  -0.9685055331E-14  -0.9567808244E-14   0.9647714344E-17  -0.7784994941E-16  -0.2122696762E-16
   0.1947456055E+01   0.0000000000E+00  -0.3623064922E-17  -0.1525878906E-01   0.0000000000E+00  -0.9265554759E-17  -0.3728515625E-01   0.0000000000E+00   0.5642489837E-17   0.0000000000E+00   0.0000000000E+00   0.0000000000E+00   0.0000000000E+00   0.0000000000E+00   0.0000000000E+00  -0.1100896751E+01  -0.2947708698E-14  -0.3064955786E-14  -0.3297211411E-16   0.7776920671E-16   0.4031245972E-17
   0.1947456055E+01   0.1012952504E+01  -0.2780115393E-17  -0.1525878906E-01   0.3808479545E-02  -0.9071181170E-17  -0.3728515625E-01   0.9144023992E-02   0.6291065777E-17   0.0000000000E+00   0.0000000000E+00   0.0000000000E+00   0.0000000000E+00   0.0000000000E+00   0.0000000000E+00  -0.1100896751E+01  -0.4311125225E-14  -0.4389794431E-14   0.5095976156E-16  -0.1381125171E-15  -0.2592618370E-16
   0.1947456055E+01   0.0000000000E+00   0.1012952504E+01  -0.1525878906E-01   0.0000000000E+00   0.3808479545E-02  -0.3728515625E-01   0.0000000000E+00   0.9144023992E-02   0.0000000000E+00   0.0000000000E+00   0.0000000000E+00   0.0000000000E+00   0.0000000000E+00   0.0000000000E+00  -0.1100896751E+01  -0.1812663760E-13  -0.1810555825E-13  -0.1316673333E-16   0.8475665710E-17   0.1382496550E-16
   0.1947456055E+01   0.1012952504E+01   0.1012952504E+01  -0.1525878906E-01   0.3808479545E-02   0.3808479545E-02  -0.3728515625E-01   0.9144023992E-02   0.9144023992E-02   0.0000000000E+00   0.0000000000E+00   0.0000000000E+00   0.0000000000E+00   0.0000000000E+00   0.0000000000E+00  -0.1100896751E+01  -0.6533085172E-14  -0.6473427943E-14  -0.4455035833E-17   0.1288990728E-15  -0.6822031475E-16
     1     2     3     4     5     6     7     8
     2     9    10     3     6    11    12     7
 VARIABLES = X,Y,Z,DU1,DU2,DU3,U1,U2,U3,e11,e22,e33,e12,e13,e23,S11,S22,S33,S12,S13,S23
 ZONE, T="0.1179D+01" F=FEPOINT, I=   12 J=    2 ET=BRICK
   0.0000000000E+00   0.0000000000E+00   0.0000000000E+00   0.0000000000E+00   0.0000000000E+00   0.0000000000E+00   0.0000000000E+00   0.0000000000E+00   0.0000000000E+00   0.0000000000E+00   0.0000000000E+00   0.0000000000E+00   0.0000000000E+00   0.0000000000E+00   0.0000000000E+00  -0.1135652777E+01  -0.1264653144E-13  -0.1251836181E-13  -0.1243919490E-16   0.3982490948E-16  -0.1113175629E-16
   0.9641912842E+00   0.0000000000E+00   0.3867352085E-18  -0.9536743164E-02   0.0000000000E+00   0.4285364961E-18  -0.2627197266E-01   0.0000000000E+00  -0.4180128764E-19   0.0000000000E+00   0.0000000000E+00   0.0000000000E+00   0.0000000000E+00   0.0000000000E+00   0.0000000000E+00  -0.1135652777E+01  -0.3312967993E-14  -0.3331372321E-14   0.3066263772E-17  -0.5096353609E-16   0.2029837697E-16
   0.9641912842E+00   0.1017715082E+01   0.1571579174E-17  -0.9536743164E-02   0.4762578911E-02   0.1391533210E-17  -0.2627197266E-01   0.1295250354E-01   0.1800459645E-18   0.0000000000E+00   0.0000000000E+00   0.0000000000E+00   0.0000000000E+00   0.0000000000E+00   0.0000000000E+00  -0.1135652777E+01  -0.6381351426E-14  -0.6463510225E-14  -0.2171720244E-16   0.6975628709E-16  -0.5044700113E-16
   0.0000000000E+00   0.1017715082E+01   0.1850395878E-17   0.0000000000E+00   0.4762578911E-02   0.2499967016E-17   0.0000000000E+00   0.1295250354E-01  -0.6495711378E-18   0.0000000000E+00   0.0000000000E+00   0.0000000000E+00   0.0000000000E+00   0.0000000000E+00   0.0000000000E+00  -0.1135652777E+01   0.4691432358E-14   0.4660215809E-14  -0.4545366328E-16  -0.6666519368E-17   0.5602002860E-16
   0.0000000000E+00   0.0000000000E+00   0.1017715082E+01   0.0000000000E+00   0.0000000000E+00   0.4762578911E-02   0.0000000000E+00   0.0000000000E+00   0.1295250354E-01   0.0000000000E+00   0.0000000000E+00   0.0000000000E+00   0.0000000000E+00   0.0000000000E+00   0.0000000000E+00  -0.1135652777E+01   0.1235347224E-13   0.1247851547E-13  -0.1777185391E-16  -0.9261942446E-16   0.8328588181E-17
   0.9641912842E+00   0.0000000000E+00   0.1017715082E+01  -0.9536743164E-02   0.0000000000E+00   0.4762578911E-02  -0.2627197266E-01   0.0000000000E+00   0.1295250354E-01   0.0000000000E+00   0.0000000000E+00   0.0000000000E+00   0.0000000000E+00   0.0000000000E+00   0.0000000000E+00  -0.1135652777E+01  -0.7568211989E-14  -0.7499526094E-14   0.1492901892E-15   0.5672311904E-16  -0.5931389280E-17
   0.9641912842E+00   0.1017715082E+01   0.1017715082E+01  -0.9536743164E-02   0.4762578911E-02   0.4762578911E-02  -0.2627197266E-01   0.1295250354E-01   0.1295250354E-01   0.0000000000E+00   0.0000000000E+00   0.0000000000E+00   0.0000000000E+00   0.0000000000E+00   0.0000000000E+00  -0.1135652777E+01  -0.1044533204E-13  -0.1044040061E-13   0.4640791163E-16  -0.4559628575E-16   0.8335408632E-17
   0.0000000000E+00   0.1017715082E+01   0.1017715082E+01   0.0000000000E+00   0.4762578911E-02   0.4762578911E-02   0.0000000000E+00   0.1295250354E-01   0.1295250354E-01   0.0000000000E+00   0.0000000000E+00   0.0000000000E+00   0.0000000000E+00   0.0000000000E+00   0.0000000000E+00  -0.1135652777E+01  -0.1820476536E-14  -0.1854819479E-14  -0.3866588493E-16   0.2371324223E-16   0.1018097065E-16
   0.1928382568E+01   0.0000000000E+00  -0.1939225926E-17  -0.1907348633E-01   0.0000000000E+00   0.1683838996E-17  -0.5254394531E-01   0.0000000000E+00  -0.3623064922E-17   0.0000000000E+00   0.0000000000E+00   0.0000000000E+00   0.0000000000E+00   0.0000000000E+00   0.0000000000E+00  -0.1135652777E+01   0.9528623370E-14   0.9537825533E-14  -0.4625686809E-16   0.1228665870E-15  -0.1287982056E-16
   0.1928382568E+01   0.1017715082E+01  -0.4074218085E-17  -0.1907348633E-01   0.4762578911E-02  -0.1294102691E-17  -0.5254394531E-01   0.1295250354E-01  -0.2780115393E-17   0.0000000000E+00   0.0000000000E+00   0.0000000000E+00   0.0000000000E+00   0.0000000000E+00   0.0000000000E+00  -0.1135652777E+01  -0.1356358053E-13  -0.1352250113E-13  -0.4196054638E-16   0.4889056428E-16   0.2441615024E-16
   0.1928382568E+01   0.0000000000E+00   0.1017715082E+01  -0.1907348633E-01   0.0000000000E+00   0.4762578911E-02  -0.5254394531E-01   0.0000000000E+00   0.1295250354E-01   0.0000000000E+00   0.0000000000E+00   0.0000000000E+00   0.0000000000E+00   0.0000000000E+00   0.0000000000E+00  -0.1135652777E+01  -0.1297015027E-13  -0.1300449322E-13  -0.4508678636E-16  -0.1638237135E-15  -0.3697117880E-16
   0.1928382568E+01   0.1017715082E+01   0.1017715082E+01  -0.1907348633E-01   0.4762578911E-02   0.4762578911E-02  -0.5254394531E-01   0.1295250354E-01   0.1295250354E-01   0.0000000000E+00   0.0000000000E+00   0.0000000000E+00   0.0000000000E+00   0.0000000000E+00   0.0000000000E+00  -0.1135652777E+01  -0.4932968362E-14  -0.4935434074E-14   0.2697071593E-16   0.1065797096E-15   0.6381871933E-16
     1     2     3     4     5     6     7     8
     2     9    10     3     6    11    12     7
 VARIABLES = X,Y,Z,DU1,DU2,DU3,U1,U2,U3,e11,e22,e33,e12,e13,e23,S11,S22,S33,S12,S13,S23
 ZONE, T="0.1229D+01" F=FEPOINT, I=   12 J=    2 ET=BRICK
   0.0000000000E+00   0.0000000000E+00   0.0000000000E+00   0.0000000000E+00   0.0000000000E+00   0.0000000000E+00   0.0000000000E+00   0.0000000000E+00   0.0000000000E+00   0.0000000000E+00   0.0000000000E+00   0.0000000000E+00   0.0000000000E+00   0.0000000000E+00   0.0000000000E+00  -0.1164051025E+01   0.8544548628E-14   0.8519032756E-14  -0.1048036594E-16   0.4312350127E-17   0.1875835805E-18
   0.9541912842E+00   0.0000000000E+00  -0.1389662637E-17  -0.1000000000E-01   0.0000000000E+00  -0.1776397846E-17  -0.3580871582E-01   0.0000000000E+00   0.3867352085E-18   0.0000000000E+00   0.0000000000E+00   0.0000000000E+00   0.0000000000E+00   0.0000000000E+00   0.0000000000E+00  -0.1164051025E+01   0.2908910419E-14   0.2857878674E-14   0.1805578140E-16  -0.3608998064E-16  -0.1314608062E-16
   0.9541912842E+00   0.1022710349E+01  -0.3146200713E-17  -0.1000000000E-01   0.4995266959E-02  -0.4717779888E-17  -0.3580871582E-01   0.1771508245E-01   0.1571579174E-17   0.0000000000E+00   0.0000000000E+00   0.0000000000E+00   0.0000000000E+00   0.0000000000E+00   0.0000000000E+00  -0.1164051025E+01  -0.1155282854E-13  -0.1153414963E-13  -0.4251618071E-16   0.2475071413E-16  -0.1865420701E-16
   0.0000000000E+00   0.1022710349E+01   0.1950656518E-17   0.0000000000E+00   0.4995266959E-02   0.1002606404E-18   0.0000000000E+00   0.1771508245E-01   0.1850395878E-17   0.0000000000E+00   0.0000000000E+00   0.0000000000E+00   0.0000000000E+00   0.0000000000E+00   0.0000000000E+00  -0.1164051025E+01  -0.8806782963E-14  -0.8867154162E-14   0.5621138405E-16  -0.4854761432E-16  -0.2582334386E-17
   0.0000000000E+00   0.0000000000E+00   0.1022710349E+01   0.0000000000E+00   0.0000000000E+00   0.4995266959E-02   0.0000000000E+00   0.0000000000E+00   0.1771508245E-01   0.0000000000E+00   0.0000000000E+00   0.0000000000E+00   0.0000000000E+00   0.0000000000E+00   0.0000000000E+00  -0.1164051025E+01  -0.2829889577E-14  -0.2718486631E-14  -0.6748667402E-18  -0.2340791243E-16   0.8220130967E-17
   0.9541912842E+00   0.0000000000E+00   0.1022710349E+01  -0.1000000000E-01   0.0000000000E+00   0.4995266959E-02  -0.3580871582E-01   0.0000000000E+00   0.1771508245E-01   0.0000000000E+00   0.0000000000E+00   0.0000000000E+00   0.0000000000E+00   0.0000000000E+00   0.0000000000E+00  -0.1164051025E+01  -0.5543547114E-14  -0.5562226026E-14  -0.2667359657E-16  -0.3139803308E-16   0.4258014607E-16
   0.9541912842E+00   0.1022710349E+01   0.1022710349E+01  -0.1000000000E-01   0.4995266959E-02   0.4995266959E-02  -0.3580871582E-01   0.1771508245E-01   0.1771508245E-01   0.0000000000E+00   0.0000000000E+00   0.0000000000E+00   0.0000000000E+00   0.0000000000E+00   0.0000000000E+00  -0.1164051025E+01   0.1106667731E-13   0.1111770905E-13   0.1723645992E-16   0.1121435751E-15  -0.1410965544E-16
   0.0000000000E+00   0.1022710349E+01   0.1022710349E+01   0.0000000000E+00   0.4995266959E-02   0.4995266959E-02   0.0000000000E+00   0.1771508245E-01   0.1771508245E-01   0.0000000000E+00   0.0000000000E+00   0.0000000000E+00   0.0000000000E+00   0.0000000000E+00   0.0000000000E+00  -0.1164051025E+01  -0.4548221444E-14  -0.4471673825E-14   0.4822110788E-17  -0.2607999378E-16   0.2009357520E-16
   0.1908382568E+01   0.0000000000E+00  -0.6989860961E-17  -0.2000000000E-01   0.0000000000E+00  -0.5050635035E-17  -0.7161743164E-01   0.0000000000E+00  -0.1939225926E-17   0.0000000000E+00   0.0000000000E+00   0.0000000000E+00   0.0000000000E+00   0.0000000000E+00   0.0000000000E+00  -0.1164051025E+01   0.1876480527E-14   0.1799932908E-14  -0.3832882022E-16   0.3451469953E-16   0.1755782921E-16
   0.1908382568E+01   0.1022710349E+01  -0.3504987289E-17  -0.2000000000E-01   0.4995266959E-02   0.5692307958E-18  -0.7161743164E-01   0.1771508245E-01  -0.4074218085E-17   0.0000000000E+00   0.0000000000E+00   0.0000000000E+00   0.0000000000E+00   0.0000000000E+00   0.0000000000E+00  -0.1164051025E+01  -0.2041019554E-13  -0.2048924565E-13   0.5912849298E-16   0.1446423506E-16  -0.6887665401E-16
   0.1908382568E+01   0.0000000000E+00   0.1022710349E+01  -0.2000000000E-01   0.0000000000E+00   0.4995266959E-02  -0.7161743164E-01   0.0000000000E+00   0.1771508245E-01   0.0000000000E+00   0.0000000000E+00   0.0000000000E+00   0.0000000000E+00   0.0000000000E+00   0.0000000000E+00  -0.1164051025E+01  -0.1436852607E-13  -0.1434050770E-13  -0.9784259831E-17   0.2345968978E-16   0.1078071570E-16
   0.1908382568E+01   0.1022710349E+01   0.1022710349E+01  -0.2000000000E-01   0.4995266959E-02   0.4995266959E-02  -0.7161743164E-01   0.1771508245E-01   0.1771508245E-01   0.0000000000E+00   0.0000000000E+00   0.0000000000E+00   0.0000000000E+00   0.0000000000E+00   0.0000000000E+00  -0.1164051025E+01   0.1046810575E-13   0.1049362162E-13  -0.7046578106E-16  -0.1110783606E-15  -0.2438900577E-17
     1     2     3     4     5     6     7     8
     2     9    10     3     6    11    12     7
 VARIABLES = X,Y,Z,DU1,DU2,DU3,U1,U2,U3,e11,e22,e33,e12,e13,e23,S11,S22,S33,S12,S13,S23
 ZONE, T="0.1279D+01" F=FEPOINT, I=   12 J=    2 ET=BRICK
   0.0000000000E+00   0.0000000000E+00   0.0000000000E+00   0.0000000000E+00   0.0000000000E+00   0.0000000000E+00   0.0000000000E+00   0.0000000000E+00   0.0000000000E+00   0.0000000000E+00   0.0000000000E+00   0.0000000000E+00   0.0000000000E+00   0.0000000000E+00   0.0000000000E+00  -0.1187319008E+01  -0.1870459133E-11  -0.1870459576E-11  -0.3790978260E-17   0.1261818282E-15  -0.3541864231E-16
   0.9441912842E+00   0.0000000000E+00   0.5684872354E-17  -0.1000000000E-01   0.0000000000E+00   0.7074534991E-17  -0.4580871582E-01   0.0000000000E+00  -0.1389662637E-17   0.0000000000E+00   0.0000000000E+00   0.0000000000E+00   0.0000000000E+00   0.0000000000E+00   0.0000000000E+00  -0.1187319008E+01  -0.1866134962E-11  -0.1866122629E-11   0.2096839447E-17  -0.1033269977E-15  -0.3930709951E-16
   0.9441912842E+00   0.1027706471E+01   0.1773501202E-17  -0.1000000000E-01   0.4996122003E-02   0.4919701916E-17  -0.4580871582E-01   0.2271034941E-01  -0.3146200713E-17   0.0000000000E+00   0.0000000000E+00   0.0000000000E+00   0.0000000000E+00   0.0000000000E+00   0.0000000000E+00  -0.1187319008E+01  -0.1863188692E-11  -0.1863133637E-11  -0.2683039950E-16   0.4586881145E-16  -0.3589276600E-16
   0.0000000000E+00   0.1027706471E+01  -0.4602701646E-17   0.0000000000E+00   0.4996122003E-02  -0.6553358165E-17   0.0000000000E+00   0.2271034941E-01   0.1950656518E-17   0.0000000000E+00   0.0000000000E+00   0.0000000000E+00   0.0000000000E+00   0.0000000000E+00   0.0000000000E+00  -0.1187319008E+01  -0.1871932268E-11  -0.1871954071E-11  -0.4931815525E-17   0.7931546166E-17   0.1713254189E-16
   0.0000000000E+00   0.0000000000E+00   0.1027706471E+01   0.0000000000E+00   0.0000000000E+00   0.4996122003E-02   0.0000000000E+00   0.0000000000E+00   0.2271034941E-01   0.0000000000E+00   0.0000000000E+00   0.0000000000E+00   0.0000000000E+00   0.0000000000E+00   0.0000000000E+00  -0.1187319008E+01  -0.1867601845E-11  -0.1867600193E-11   0.2341923305E-16   0.2933413114E-17  -0.1082484709E-16
   0.9441912842E+00   0.0000000000E+00   0.1027706471E+01  -0.1000000000E-01   0.0000000000E+00   0.4996122003E-02  -0.4580871582E-01   0.0000000000E+00   0.2271034941E-01   0.0000000000E+00   0.0000000000E+00   0.0000000000E+00   0.0000000000E+00   0.0000000000E+00   0.0000000000E+00  -0.1187319008E+01  -0.1868039820E-11  -0.1868085847E-11  -0.4348604189E-16  -0.3935565947E-16  -0.8924712127E-18
   0.9441912842E+00   0.1027706471E+01   0.1027706471E+01  -0.1000000000E-01   0.4996122003E-02   0.4996122003E-02  -0.4580871582E-01   0.2271034941E-01   0.2271034941E-01   0.0000000000E+00   0.0000000000E+00   0.0000000000E+00   0.0000000000E+00   0.0000000000E+00   0.0000000000E+00  -0.1187319008E+01  -0.1865093551E-11  -0.1865096855E-11  -0.2838188873E-16  -0.2339563157E-16   0.3230918976E-16
   0.0000000000E+00   0.1027706471E+01   0.1027706471E+01   0.0000000000E+00   0.4996122003E-02   0.4996122003E-02   0.0000000000E+00   0.2271034941E-01   0.2271034941E-01   0.0000000000E+00   0.0000000000E+00   0.0000000000E+00   0.0000000000E+00   0.0000000000E+00   0.0000000000E+00  -0.1187319008E+01  -0.1869074980E-11  -0.1869094688E-11  -0.8134349694E-16  -0.1416090323E-16   0.4728812568E-16
   0.1888382568E+01   0.0000000000E+00   0.1094334906E-16  -0.2000000000E-01   0.0000000000E+00   0.1793321002E-16  -0.9161743164E-01   0.0000000000E+00  -0.6989860961E-17   0.0000000000E+00   0.0000000000E+00   0.0000000000E+00   0.0000000000E+00   0.0000000000E+00   0.0000000000E+00  -0.1187319008E+01  -0.1853633267E-11  -0.1853724877E-11  -0.2375237196E-16   0.3724150735E-15  -0.2457237159E-16
   0.1888382568E+01   0.1027706471E+01   0.9030037046E-17  -0.2000000000E-01   0.4996122003E-02   0.1253502434E-16  -0.9161743164E-01   0.2271034941E-01  -0.3504987289E-17   0.0000000000E+00   0.0000000000E+00   0.0000000000E+00   0.0000000000E+00   0.0000000000E+00   0.0000000000E+00  -0.1187319008E+01  -0.1846119599E-11  -0.1846104405E-11  -0.3014674221E-16  -0.3159087774E-15   0.6037631976E-16
   0.1888382568E+01   0.0000000000E+00   0.1027706471E+01  -0.2000000000E-01   0.0000000000E+00   0.4996122003E-02  -0.9161743164E-01   0.0000000000E+00   0.2271034941E-01   0.0000000000E+00   0.0000000000E+00   0.0000000000E+00   0.0000000000E+00   0.0000000000E+00   0.0000000000E+00  -0.1187319008E+01  -0.1870708611E-11  -0.1870771042E-11  -0.4787949775E-16  -0.7905713656E-16   0.1074651884E-16
   0.1888382568E+01   0.1027706471E+01   0.1027706471E+01  -0.2000000000E-01   0.4996122003E-02   0.4996122003E-02  -0.9161743164E-01   0.2271034941E-01   0.2271034941E-01   0.0000000000E+00   0.0000000000E+00   0.0000000000E+00   0.0000000000E+00   0.0000000000E+00   0.0000000000E+00  -0.1187319008E+01  -0.1863194943E-11  -0.1863150569E-11  -0.3779240996E-16   0.1604941430E-15   0.4558730645E-16
     1     2     3     4     5     6     7     8
     2     9    10     3     6    11    12     7
 VARIABLES = X,Y,Z,DU1,DU2,DU3,U1,U2,U3,e11,e22,e33,e12,e13,e23,S11,S22,S33,S12,S13,S23
 ZONE, T="0.1329D+01" F=FEPOINT, I=   12 J=    2 ET=BRICK
   0.0000000000E+00   0.0000000000E+00   0.0000000000E+00   0.0000000000E+00   0.0000000000E+00   0.0000000000E+00   0.0000000000E+00   0.0000000000E+00   0.0000000000E+00   0.0000000000E+00   0.0000000000E+00   0.0000000000E+00   0.0000000000E+00   0.0000000000E+00   0.0000000000E+00  -0.1207090247E+01  -0.6395679244E-12  -0.6394624018E-12   0.6558886669E-17  -0.3713936433E-16  -0.5323592366E-16
   0.9341912842E+00   0.0000000000E+00   0.2003900351E-17  -0.1000000000E-01   0.0000000000E+00  -0.3680972004E-17  -0.5580871582E-01   0.0000000000E+00   0.5684872354E-17   0.0000000000E+00   0.0000000000E+00   0.0000000000E+00   0.0000000000E+00   0.0000000000E+00   0.0000000000E+00  -0.1207090247E+01  -0.6361189996E-12  -0.6360552282E-12  -0.9452764785E-17   0.6011660299E-17   0.3630741257E-16
   0.9341912842E+00   0.1032703176E+01   0.5636109929E-17  -0.1000000000E-01   0.4996704794E-02   0.3862608727E-17  -0.5580871582E-01   0.2770647141E-01   0.1773501202E-17   0.0000000000E+00   0.0000000000E+00   0.0000000000E+00   0.0000000000E+00   0.0000000000E+00   0.0000000000E+00  -0.1207090246E+01  -0.6361189995E-12  -0.6360552281E-12  -0.7692448509E-16  -0.1084827085E-15   0.3352128977E-16
   0.0000000000E+00   0.1032703176E+01  -0.8905912038E-17   0.0000000000E+00   0.4996704794E-02  -0.4303210392E-17   0.0000000000E+00   0.2770647141E-01  -0.4602701646E-17   0.0000000000E+00   0.0000000000E+00   0.0000000000E+00   0.0000000000E+00   0.0000000000E+00   0.0000000000E+00  -0.1207090246E+01  -0.6395679243E-12  -0.6394624017E-12   0.2059959093E-16   0.1558910592E-15  -0.4639728575E-16
   0.0000000000E+00   0.0000000000E+00   0.1032703176E+01   0.0000000000E+00   0.0000000000E+00   0.4996704794E-02   0.0000000000E+00   0.0000000000E+00   0.2770647141E-01   0.0000000000E+00   0.0000000000E+00   0.0000000000E+00   0.0000000000E+00   0.0000000000E+00   0.0000000000E+00  -0.1207090246E+01  -0.6398662175E-12  -0.6397570839E-12  -0.5996261741E-17   0.5914556519E-16   0.1658643386E-16
   0.9341912842E+00   0.0000000000E+00   0.1032703176E+01  -0.1000000000E-01   0.0000000000E+00   0.4996704794E-02  -0.5580871582E-01   0.0000000000E+00   0.2770647141E-01   0.0000000000E+00   0.0000000000E+00   0.0000000000E+00   0.0000000000E+00   0.0000000000E+00   0.0000000000E+00  -0.1207090246E+01  -0.6278096110E-12  -0.6278464295E-12  -0.1186698792E-16   0.3005402933E-17   0.1304143092E-17
   0.9341912842E+00   0.1032703176E+01   0.1032703176E+01  -0.1000000000E-01   0.4996704794E-02   0.4996704794E-02  -0.5580871582E-01   0.2770647141E-01   0.2770647141E-01   0.0000000000E+00   0.0000000000E+00   0.0000000000E+00   0.0000000000E+00   0.0000000000E+00   0.0000000000E+00  -0.1207090246E+01  -0.6278096110E-12  -0.6278464294E-12   0.5791535058E-16  -0.4662599812E-16  -0.3376642663E-16
   0.0000000000E+00   0.1032703176E+01   0.1032703176E+01   0.0000000000E+00   0.4996704794E-02   0.4996704794E-02   0.0000000000E+00   0.2770647141E-01   0.2770647141E-01   0.0000000000E+00   0.0000000000E+00   0.0000000000E+00   0.0000000000E+00   0.0000000000E+00   0.0000000000E+00  -0.1207090246E+01  -0.6398662175E-12  -0.6397570839E-12  -0.2535519656E-16  -0.2727278544E-16   0.7262742886E-16
   0.1868382568E+01   0.0000000000E+00   0.1340278846E-16  -0.2000000000E-01   0.0000000000E+00   0.2459439396E-17  -0.1116174316E+00   0.0000000000E+00   0.1094334906E-16   0.0000000000E+00   0.0000000000E+00   0.0000000000E+00   0.0000000000E+00   0.0000000000E+00   0.0000000000E+00  -0.1207090247E+01  -0.6282170875E-12  -0.6282489732E-12   0.5871816417E-16  -0.1069734278E-15  -0.5227302401E-16
   0.1868382568E+01   0.1032703176E+01   0.7661292473E-17  -0.2000000000E-01   0.4996704794E-02  -0.1368744573E-17  -0.1116174316E+00   0.2770647141E-01   0.9030037046E-17   0.0000000000E+00   0.0000000000E+00   0.0000000000E+00   0.0000000000E+00   0.0000000000E+00   0.0000000000E+00  -0.1207090246E+01  -0.6282170874E-12  -0.6282489731E-12   0.1003435706E-15   0.4657001480E-16   0.3116347386E-16
   0.1868382568E+01   0.0000000000E+00   0.1032703176E+01  -0.2000000000E-01   0.0000000000E+00   0.4996704794E-02  -0.1116174316E+00   0.0000000000E+00   0.2770647141E-01   0.0000000000E+00   0.0000000000E+00   0.0000000000E+00   0.0000000000E+00   0.0000000000E+00   0.0000000000E+00  -0.1207090246E+01  -0.6323717815E-12  -0.6323533723E-12   0.2788831019E-16   0.7335766386E-16   0.5051144898E-17
   0.1868382568E+01   0.1032703176E+01   0.1032703176E+01  -0.2000000000E-01   0.4996704794E-02   0.4996704794E-02  -0.1116174316E+00   0.2770647141E-01   0.2770647141E-01   0.0000000000E+00   0.0000000000E+00   0.0000000000E+00   0.0000000000E+00   0.0000000000E+00   0.0000000000E+00  -0.1207090246E+01  -0.6323717814E-12  -0.6323533722E-12   0.2708997644E-16   0.1614888128E-15  -0.3563823371E-16
     1     2     3     4     5     6     7     8
     2     9    10     3     6    11    12     7
 VARIABLES = X,Y,Z,DU1,DU2,DU3,U1,U2,U3,e11,e22,e33,e12,e13,e23,S11,S22,S33,S12,S13,S23
 ZONE, T="0.1379D+01" F=FEPOINT, I=   12 J=    2 ET=BRICK
   0.0000000000E+00   0.0000000000E+00   0.0000000000E+00   0.0000000000E+00   0.0000000000E+00   0.0000000000E+00   0.0000000000E+00   0.0000000000E+00   0.0000000000E+00   0.0000000000E+00   0.0000000000E+00   0.0000000000E+00   0.0000000000E+00   0.0000000000E+00   0.0000000000E+00  -0.1224317092E+01  -0.2869161888E-12  -0.2869161888E-12  -0.2091175215E-16   0.7717783418E-16   0.8827349345E-17
   0.9241912842E+00   0.0000000000E+00   0.5802870979E-17  -0.1000000000E-01   0.0000000000E+00   0.3798970629E-17  -0.6580871582E-01   0.0000000000E+00   0.2003900351E-17   0.0000000000E+00   0.0000000000E+00   0.0000000000E+00   0.0000000000E+00   0.0000000000E+00   0.0000000000E+00  -0.1224317092E+01  -0.2623178571E-12  -0.2623178571E-12   0.4409829540E-16   0.2004150621E-16  -0.8705761623E-16
   0.9241912842E+00   0.1037700305E+01  -0.9754735103E-17  -0.1000000000E-01   0.4997128859E-02  -0.1539084503E-16  -0.6580871582E-01   0.3270317620E-01   0.5636109929E-17   0.0000000000E+00   0.0000000000E+00   0.0000000000E+00   0.0000000000E+00   0.0000000000E+00   0.0000000000E+00  -0.1224317092E+01  -0.2503404296E-12  -0.2502108080E-12   0.1211970905E-16  -0.3014321559E-17  -0.7284803856E-16
   0.0000000000E+00   0.1037700305E+01  -0.2946243898E-17   0.0000000000E+00   0.4997128859E-02   0.5959668140E-17   0.0000000000E+00   0.3270317620E-01  -0.8905912038E-17   0.0000000000E+00   0.0000000000E+00   0.0000000000E+00   0.0000000000E+00   0.0000000000E+00   0.0000000000E+00  -0.1224317092E+01  -0.2258187699E-12  -0.2256891483E-12   0.7918003867E-17  -0.4340259816E-16  -0.4385479581E-16
   0.0000000000E+00   0.0000000000E+00   0.1037700305E+01   0.0000000000E+00   0.0000000000E+00   0.4997128859E-02   0.0000000000E+00   0.0000000000E+00   0.3270317620E-01   0.0000000000E+00   0.0000000000E+00   0.0000000000E+00   0.0000000000E+00   0.0000000000E+00   0.0000000000E+00  -0.1224317092E+01  -0.2555734109E-12  -0.2557030324E-12   0.2586425728E-17  -0.2204515806E-16  -0.7323371829E-16
   0.9241912842E+00   0.0000000000E+00   0.1037700305E+01  -0.1000000000E-01   0.0000000000E+00   0.4997128859E-02  -0.6580871582E-01   0.0000000000E+00   0.3270317620E-01   0.0000000000E+00   0.0000000000E+00   0.0000000000E+00   0.0000000000E+00   0.0000000000E+00   0.0000000000E+00  -0.1224317092E+01  -0.2621645131E-12  -0.2622941347E-12  -0.3160792581E-16   0.1533408113E-16   0.3126650111E-16
   0.9241912842E+00   0.1037700305E+01   0.1037700305E+01  -0.1000000000E-01   0.4997128859E-02   0.4997128859E-02  -0.6580871582E-01   0.3270317620E-01   0.3270317620E-01   0.0000000000E+00   0.0000000000E+00   0.0000000000E+00   0.0000000000E+00   0.0000000000E+00   0.0000000000E+00  -0.1224317092E+01  -0.2502993411E-12  -0.2502993411E-12  -0.1584114703E-16  -0.7495755848E-16   0.4804658569E-16
   0.0000000000E+00   0.1037700305E+01   0.1037700305E+01   0.0000000000E+00   0.4997128859E-02   0.4997128859E-02   0.0000000000E+00   0.3270317620E-01   0.3270317620E-01   0.0000000000E+00   0.0000000000E+00   0.0000000000E+00   0.0000000000E+00   0.0000000000E+00   0.0000000000E+00  -0.1224317092E+01  -0.2568698992E-12  -0.2568698992E-12  -0.1851538402E-16   0.5384411318E-16   0.1218396573E-15
   0.1848382568E+01   0.0000000000E+00  -0.8172027650E-17  -0.2000000000E-01   0.0000000000E+00  -0.2157481611E-16  -0.1316174316E+00   0.0000000000E+00   0.1340278846E-16   0.0000000000E+00   0.0000000000E+00   0.0000000000E+00   0.0000000000E+00   0.0000000000E+00   0.0000000000E+00  -0.1224317092E+01  -0.2377195254E-12  -0.2377195254E-12   0.3740418024E-16   0.4746551885E-16   0.1436377349E-16
   0.1848382568E+01   0.1037700305E+01  -0.6663281328E-17  -0.2000000000E-01   0.4997128859E-02  -0.1432457380E-16  -0.1316174316E+00   0.3270317620E-01   0.7661292473E-17   0.0000000000E+00   0.0000000000E+00   0.0000000000E+00   0.0000000000E+00   0.0000000000E+00   0.0000000000E+00  -0.1224317092E+01  -0.2748620892E-12  -0.2747324676E-12  -0.5581593369E-16  -0.3391423320E-16   0.6640029874E-16
   0.1848382568E+01   0.0000000000E+00   0.1037700305E+01  -0.2000000000E-01   0.0000000000E+00   0.4997128859E-02  -0.1316174316E+00   0.0000000000E+00   0.3270317620E-01   0.0000000000E+00   0.0000000000E+00   0.0000000000E+00   0.0000000000E+00   0.0000000000E+00   0.0000000000E+00  -0.1224317092E+01  -0.2687556153E-12  -0.2688852369E-12  -0.1164132710E-16   0.7614885569E-16   0.3766634909E-16
   0.1848382568E+01   0.1037700305E+01   0.1037700305E+01  -0.2000000000E-01   0.4997128859E-02   0.4997128859E-02  -0.1316174316E+00   0.3270317620E-01   0.3270317620E-01   0.0000000000E+00   0.0000000000E+00   0.0000000000E+00   0.0000000000E+00   0.0000000000E+00   0.0000000000E+00  -0.1224317092E+01  -0.2437287831E-12  -0.2437287831E-12   0.9449005206E-16  -0.4070098895E-16  -0.7074930603E-17
     1     2     3     4     5     6     7     8
     2     9    10     3     6    11    12     7
 VARIABLES = X,Y,Z,DU1,DU2,DU3,U1,U2,U3,e11,e22,e33,e12,e13,e23,S11,S22,S33,S12,S13,S23
 ZONE, T="0.1429D+01" F=FEPOINT, I=   12 J=    2 ET=BRICK
   0.0000000000E+00   0.0000000000E+00   0.0000000000E+00   0.0000000000E+00   0.0000000000E+00   0.0000000000E+00   0.0000000000E+00   0.0000000000E+00   0.0000000000E+00   0.0000000000E+00   0.0000000000E+00   0.0000000000E+00   0.0000000000E+00   0.0000000000E+00   0.0000000000E+00  -0.1239605159E+01  -0.7678759394E-13  -0.7677983049E-13   0.7542299274E-17   0.1882253182E-16   0.5522027594E-16
   0.9141912842E+00   0.0000000000E+00   0.3599354188E-17  -0.1000000000E-01   0.0000000000E+00  -0.2203516791E-17  -0.7580871582E-01   0.0000000000E+00   0.5802870979E-17   0.0000000000E+00   0.0000000000E+00   0.0000000000E+00   0.0000000000E+00   0.0000000000E+00   0.0000000000E+00  -0.1239605159E+01  -0.1127751866E-12  -0.1126592391E-12  -0.8854098406E-16   0.1457087780E-16   0.4350940066E-16
   0.9141912842E+00   0.1042697757E+01   0.5176852813E-17  -0.1000000000E-01   0.4997451989E-02   0.1493158792E-16  -0.7580871582E-01   0.3770030506E-01  -0.9754735103E-17   0.0000000000E+00   0.0000000000E+00   0.0000000000E+00   0.0000000000E+00   0.0000000000E+00   0.0000000000E+00  -0.1239605159E+01  -0.1329232873E-12  -0.1328441266E-12  -0.5868225513E-16   0.5717714179E-16   0.2275872823E-16
   0.0000000000E+00   0.1042697757E+01   0.1222820803E-16   0.0000000000E+00   0.4997451989E-02   0.1517445193E-16   0.0000000000E+00   0.3770030506E-01  -0.2946243898E-17   0.0000000000E+00   0.0000000000E+00   0.0000000000E+00   0.0000000000E+00   0.0000000000E+00   0.0000000000E+00  -0.1239605159E+01  -0.1339438966E-12  -0.1340916295E-12  -0.5578023569E-16  -0.6156114994E-16   0.5907161149E-16
   0.0000000000E+00   0.0000000000E+00   0.1042697757E+01   0.0000000000E+00   0.0000000000E+00   0.4997451989E-02   0.0000000000E+00   0.0000000000E+00   0.3770030506E-01   0.0000000000E+00   0.0000000000E+00   0.0000000000E+00   0.0000000000E+00   0.0000000000E+00   0.0000000000E+00  -0.1239605159E+01  -0.1211598776E-12  -0.1211202923E-12   0.1044279049E-16  -0.3828214125E-16   0.8112190617E-17
   0.9141912842E+00   0.0000000000E+00   0.1042697757E+01  -0.1000000000E-01   0.0000000000E+00   0.4997451989E-02  -0.7580871582E-01   0.0000000000E+00   0.3770030506E-01   0.0000000000E+00   0.0000000000E+00   0.0000000000E+00   0.0000000000E+00   0.0000000000E+00   0.0000000000E+00  -0.1239605159E+01  -0.1148163434E-12  -0.1148375662E-12   0.9647308866E-17  -0.3416929584E-16  -0.1039047884E-15
   0.9141912842E+00   0.1042697757E+01   0.1042697757E+01  -0.1000000000E-01   0.4997451989E-02   0.4997451989E-02  -0.7580871582E-01   0.3770030506E-01   0.3770030506E-01   0.0000000000E+00   0.0000000000E+00   0.0000000000E+00   0.0000000000E+00   0.0000000000E+00   0.0000000000E+00  -0.1239605159E+01  -0.1142482046E-12  -0.1143061586E-12   0.1602643656E-16   0.1437421060E-15   0.8098710553E-16
   0.0000000000E+00   0.1042697757E+01   0.1042697757E+01   0.0000000000E+00   0.4997451989E-02   0.4997451989E-02   0.0000000000E+00   0.3770030506E-01   0.3770030506E-01   0.0000000000E+00   0.0000000000E+00   0.0000000000E+00   0.0000000000E+00   0.0000000000E+00   0.0000000000E+00  -0.1239605159E+01  -0.1262879310E-12  -0.1264038440E-12   0.3970708891E-16  -0.5994715436E-16  -0.1149567371E-15
   0.1828382568E+01   0.0000000000E+00   0.1220866801E-16  -0.2000000000E-01   0.0000000000E+00   0.2038069566E-16  -0.1516174316E+00   0.0000000000E+00  -0.8172027650E-17   0.0000000000E+00   0.0000000000E+00   0.0000000000E+00   0.0000000000E+00   0.0000000000E+00   0.0000000000E+00  -0.1239605159E+01  -0.1277876730E-12  -0.1276795420E-12  -0.1933416489E-17  -0.7739854651E-16  -0.7103588406E-16
   0.1828382568E+01   0.1042697757E+01   0.6988729907E-17  -0.2000000000E-01   0.4997451989E-02   0.1365201123E-16  -0.1516174316E+00   0.3770030506E-01  -0.6663281328E-17   0.0000000000E+00   0.0000000000E+00   0.0000000000E+00   0.0000000000E+00   0.0000000000E+00   0.0000000000E+00  -0.1239605159E+01  -0.1317443615E-12  -0.1317549636E-12  -0.6667365941E-17  -0.8829323960E-16   0.1019376082E-15
   0.1828382568E+01   0.0000000000E+00   0.1042697757E+01  -0.2000000000E-01   0.0000000000E+00   0.4997451989E-02  -0.1516174316E+00   0.0000000000E+00   0.3770030506E-01   0.0000000000E+00   0.0000000000E+00   0.0000000000E+00   0.0000000000E+00   0.0000000000E+00   0.0000000000E+00  -0.1239605159E+01  -0.1085152598E-12  -0.1085124131E-12   0.2141189097E-16  -0.6836195069E-16  -0.1976693288E-16
   0.1828382568E+01   0.1042697757E+01   0.1042697757E+01  -0.2000000000E-01   0.4997451989E-02   0.4997451989E-02  -0.1516174316E+00   0.3770030506E-01   0.3770030506E-01   0.0000000000E+00   0.0000000000E+00   0.0000000000E+00   0.0000000000E+00   0.0000000000E+00   0.0000000000E+00  -0.1239605159E+01  -0.1230675776E-12  -0.1231834918E-12   0.2521890587E-16  -0.1952782583E-16  -0.7076058688E-16
     1     2     3     4     5     6     7     8
     2     9    10     3     6    11    12     7
 VARIABLES = X,Y,Z,DU1,DU2,DU3,U1,U2,U3,e11,e22,e33,e12,e13,e23,S11,S22,S33,S12,S13,S23
 ZONE, T="0.1479D+01" F=FEPOINT, I=   12 J=    2 ET=BRICK
   0.0000000000E+00   0.0000000000E+00   0.0000000000E+00   0.0000000000E+00   0.0000000000E+00   0.0000000000E+00   0.0000000000E+00   0.0000000000E+00   0.0000000000E+00   0.0000000000E+00   0.0000000000E+00   0.0000000000E+00   0.0000000000E+00   0.0000000000E+00   0.0000000000E+00  -0.1253364327E+01  -0.9447545854E-13  -0.9436497328E-13  -0.5284219506E-17   0.9528657054E-17  -0.5108759234E-16
   0.9041912842E+00   0.0000000000E+00   0.6749043337E-17  -0.1000000000E-01   0.0000000000E+00   0.3149689149E-17  -0.8580871582E-01   0.0000000000E+00   0.3599354188E-17   0.0000000000E+00   0.0000000000E+00   0.0000000000E+00   0.0000000000E+00   0.0000000000E+00   0.0000000000E+00  -0.1253364327E+01  -0.7232441966E-13  -0.7228304223E-13   0.2034146718E-15   0.1609986509E-15  -0.7536057519E-16
   0.9041912842E+00   0.1047695464E+01  -0.1297075651E-16  -0.1000000000E-01   0.4997706805E-02  -0.1814760932E-16  -0.8580871582E-01   0.4269775705E-01   0.5176852813E-17   0.0000000000E+00   0.0000000000E+00   0.0000000000E+00   0.0000000000E+00   0.0000000000E+00   0.0000000000E+00  -0.1253364327E+01  -0.5156725693E-13  -0.5142087635E-13   0.2430155553E-15  -0.8465284059E-16  -0.3188133805E-16
   0.0000000000E+00   0.1047695464E+01  -0.1329192366E-16   0.0000000000E+00   0.4997706805E-02  -0.2552013169E-16   0.0000000000E+00   0.4269775705E-01   0.1222820803E-16   0.0000000000E+00   0.0000000000E+00   0.0000000000E+00   0.0000000000E+00   0.0000000000E+00   0.0000000000E+00  -0.1253364327E+01  -0.5560124835E-13  -0.5554326466E-13   0.1514606542E-16  -0.2812977167E-16   0.8107435364E-16
   0.0000000000E+00   0.0000000000E+00   0.1047695464E+01   0.0000000000E+00   0.0000000000E+00   0.4997706805E-02   0.0000000000E+00   0.0000000000E+00   0.4269775705E-01   0.0000000000E+00   0.0000000000E+00   0.0000000000E+00   0.0000000000E+00   0.0000000000E+00   0.0000000000E+00  -0.1253364327E+01  -0.5933223461E-13  -0.5939837693E-13   0.1270536935E-16   0.9539706670E-17  -0.8398585771E-16
   0.9041912842E+00   0.0000000000E+00   0.1047695464E+01  -0.1000000000E-01   0.0000000000E+00   0.4997706805E-02  -0.8580871582E-01   0.0000000000E+00   0.4269775705E-01   0.0000000000E+00   0.0000000000E+00   0.0000000000E+00   0.0000000000E+00   0.0000000000E+00   0.0000000000E+00  -0.1253364327E+01  -0.5140979560E-13  -0.5157834628E-13  -0.7736540808E-16   0.9731475421E-16  -0.5590816663E-16
   0.9041912842E+00   0.1047695464E+01   0.1047695464E+01  -0.1000000000E-01   0.4997706805E-02   0.4997706805E-02  -0.8580871582E-01   0.4269775705E-01   0.4269775705E-01   0.0000000000E+00   0.0000000000E+00   0.0000000000E+00   0.0000000000E+00   0.0000000000E+00   0.0000000000E+00  -0.1253364327E+01  -0.7225272951E-13  -0.7231630283E-13  -0.9704537782E-16  -0.1131899600E-15   0.8764610801E-16
   0.0000000000E+00   0.1047695464E+01   0.1047695464E+01   0.0000000000E+00   0.4997706805E-02   0.4997706805E-02   0.0000000000E+00   0.4269775705E-01   0.4269775705E-01   0.0000000000E+00   0.0000000000E+00   0.0000000000E+00   0.0000000000E+00   0.0000000000E+00   0.0000000000E+00  -0.1253364327E+01  -0.6210801197E-13  -0.6222664297E-13  -0.1680234869E-16   0.3995928595E-16  -0.6777260209E-16
   0.1808382568E+01   0.0000000000E+00   0.1042058064E-16  -0.2000000000E-01   0.0000000000E+00  -0.1788087370E-17  -0.1716174316E+00   0.0000000000E+00   0.1220866801E-16   0.0000000000E+00   0.0000000000E+00   0.0000000000E+00   0.0000000000E+00   0.0000000000E+00   0.0000000000E+00  -0.1253364327E+01  -0.6220595427E-13  -0.6212878086E-13   0.1007970180E-16   0.1217744181E-15  -0.7271666412E-16
   0.1808382568E+01   0.1047695464E+01  -0.4712793273E-17  -0.2000000000E-01   0.4997706805E-02  -0.1170152318E-16  -0.1716174316E+00   0.4269775705E-01   0.6988729907E-17   0.0000000000E+00   0.0000000000E+00   0.0000000000E+00   0.0000000000E+00   0.0000000000E+00   0.0000000000E+00  -0.1253364327E+01  -0.5949931779E-13  -0.5915960676E-13  -0.2882395092E-16  -0.3562137664E-15   0.9078735717E-17
   0.1808382568E+01   0.0000000000E+00   0.1047695464E+01  -0.2000000000E-01   0.0000000000E+00   0.4997706805E-02  -0.1716174316E+00   0.0000000000E+00   0.4269775705E-01   0.0000000000E+00   0.0000000000E+00   0.0000000000E+00   0.0000000000E+00   0.0000000000E+00   0.0000000000E+00  -0.1253364327E+01  -0.5545340886E-13  -0.5561935304E-13  -0.2938032020E-16   0.1532850565E-15   0.1083323975E-15
   0.1808382568E+01   0.1047695464E+01   0.1047695464E+01  -0.2000000000E-01   0.4997706805E-02   0.4997706805E-02  -0.1716174316E+00   0.4269775705E-01   0.4269775705E-01   0.0000000000E+00   0.0000000000E+00   0.0000000000E+00   0.0000000000E+00   0.0000000000E+00   0.0000000000E+00  -0.1253364327E+01  -0.9461175990E-13  -0.9451537173E-13  -0.4055522332E-17  -0.8630597408E-16   0.2245307911E-15
     1     2     3     4     5     6     7     8
     2     9    10     3     6    11    12     7
 VARIABLES = X,Y,Z,DU1,DU2,DU3,U1,U2,U3,e11,e22,e33,e12,e13,e23,S11,S22,S33,S12,S13,S23
 ZONE, T="0.1529D+01" F=FEPOINT, I=   12 J=    2 ET=BRICK
   0.0000000000E+00   0.0000000000E+00   0.0000000000E+00   0.0000000000E+00   0.0000000000E+00   0.0000000000E+00   0.0000000000E+00   0.0000000000E+00   0.0000000000E+00   0.0000000000E+00   0.0000000000E+00   0.0000000000E+00   0.0000000000E+00   0.0000000000E+00   0.0000000000E+00  -0.1251229352E+01  -0.2141315028E-13  -0.2145780395E-13   0.2057305033E-16   0.1124163749E-15  -0.3039018806E-16
   0.9058087158E+00   0.0000000000E+00   0.4852606532E-17   0.1617431641E-02   0.0000000000E+00  -0.1896436805E-17  -0.9580871582E-01   0.0000000000E+00   0.6749043337E-17   0.0000000000E+00   0.0000000000E+00   0.0000000000E+00   0.0000000000E+00   0.0000000000E+00   0.0000000000E+00  -0.1251229352E+01  -0.2336418806E-13  -0.2331391398E-13  -0.8902242663E-17  -0.1254949673E-15   0.3071106951E-16
   0.9058087158E+00   0.1046887104E+01   0.6220082799E-17   0.1617431641E-02  -0.8083599911E-03   0.1919083930E-16  -0.9580871582E-01   0.4769546386E-01  -0.1297075651E-16   0.0000000000E+00   0.0000000000E+00   0.0000000000E+00   0.0000000000E+00   0.0000000000E+00   0.0000000000E+00  -0.1251229352E+01  -0.8112266027E-15  -0.9598594543E-15   0.8671793309E-16   0.4266879386E-16   0.9988671593E-17
   0.0000000000E+00   0.1046887104E+01  -0.4675217995E-17   0.0000000000E+00  -0.8083599911E-03   0.8616705663E-17   0.0000000000E+00   0.4769546386E-01  -0.1329192366E-16   0.0000000000E+00   0.0000000000E+00   0.0000000000E+00   0.0000000000E+00   0.0000000000E+00   0.0000000000E+00  -0.1251229352E+01   0.1279951413E-13   0.1282053789E-13  -0.2575095370E-16  -0.1585912803E-16   0.1412790619E-17
   0.0000000000E+00   0.0000000000E+00   0.1046887104E+01   0.0000000000E+00   0.0000000000E+00  -0.8083599911E-03   0.0000000000E+00   0.0000000000E+00   0.4769546386E-01   0.0000000000E+00   0.0000000000E+00   0.0000000000E+00   0.0000000000E+00   0.0000000000E+00   0.0000000000E+00  -0.1251229352E+01  -0.3213410067E-13  -0.3205976706E-13   0.2869563618E-16   0.8394061705E-16  -0.2397291318E-16
   0.9058087158E+00   0.0000000000E+00   0.1046887104E+01   0.1617431641E-02   0.0000000000E+00  -0.8083599911E-03  -0.9580871582E-01   0.0000000000E+00   0.4769546386E-01   0.0000000000E+00   0.0000000000E+00   0.0000000000E+00   0.0000000000E+00   0.0000000000E+00   0.0000000000E+00  -0.1251229352E+01  -0.4191482391E-14  -0.4126912546E-14  -0.2195421202E-15   0.8453833098E-17  -0.5389164147E-16
   0.9058087158E+00   0.1046887104E+01   0.1046887104E+01   0.1617431641E-02  -0.8083599911E-03  -0.8083599911E-03  -0.9580871582E-01   0.4769546386E-01   0.4769546386E-01   0.0000000000E+00   0.0000000000E+00   0.0000000000E+00   0.0000000000E+00   0.0000000000E+00   0.0000000000E+00  -0.1251229351E+01  -0.2327187818E-13  -0.2340623015E-13  -0.1768777513E-15  -0.1533786510E-15   0.1009235506E-16
   0.0000000000E+00   0.1046887104E+01   0.1046887104E+01   0.0000000000E+00  -0.8083599911E-03  -0.8083599911E-03   0.0000000000E+00   0.4769546386E-01   0.4769546386E-01   0.0000000000E+00   0.0000000000E+00   0.0000000000E+00   0.0000000000E+00   0.0000000000E+00   0.0000000000E+00  -0.1251229351E+01  -0.3961320853E-13  -0.3947321582E-13   0.2482386250E-16  -0.3445459752E-16  -0.6594722367E-16
   0.1811617432E+01   0.0000000000E+00  -0.6623287413E-17   0.3234863281E-02   0.0000000000E+00  -0.1704386806E-16  -0.1916174316E+00   0.0000000000E+00   0.1042058064E-16   0.0000000000E+00   0.0000000000E+00   0.0000000000E+00   0.0000000000E+00   0.0000000000E+00   0.0000000000E+00  -0.1251229352E+01  -0.3725569242E-13  -0.3737310184E-13   0.2809799219E-16   0.9450784822E-16   0.1126374533E-15
   0.1811617432E+01   0.1046887104E+01   0.2402319343E-16   0.3234863281E-02  -0.8083599911E-03   0.2873598671E-16  -0.1916174316E+00   0.4769546386E-01  -0.4712793273E-17   0.0000000000E+00   0.0000000000E+00   0.0000000000E+00   0.0000000000E+00   0.0000000000E+00   0.0000000000E+00  -0.1251229352E+01   0.1508625663E-13   0.1487449693E-13   0.1206709277E-15  -0.1356058657E-15   0.2489977564E-16
   0.1811617432E+01   0.0000000000E+00   0.1046887104E+01   0.3234863281E-02   0.0000000000E+00  -0.8083599911E-03  -0.1916174316E+00   0.0000000000E+00   0.4769546386E-01   0.0000000000E+00   0.0000000000E+00   0.0000000000E+00   0.0000000000E+00   0.0000000000E+00   0.0000000000E+00  -0.1251229352E+01  -0.3000735465E-13  -0.2984593748E-13   0.5084709028E-16   0.4317752360E-15   0.7059642611E-16
   0.1811617432E+01   0.1046887104E+01   0.1046887104E+01   0.3234863281E-02  -0.8083599911E-03  -0.8083599911E-03  -0.1916174316E+00   0.4769546386E-01   0.4769546386E-01   0.0000000000E+00   0.0000000000E+00   0.0000000000E+00   0.0000000000E+00   0.0000000000E+00   0.0000000000E+00  -0.1251229351E+01  -0.1924034782E-13  -0.1917315151E-13  -0.2867733534E-16  -0.8753813343E-16  -0.8248689613E-16
     1     2     3     4     5     6     7     8
     2     9    10     3     6    11    12     7
 VARIABLES = X,Y,Z,DU1,DU2,DU3,U1,U2,U3,e11,e22,e33,e12,e13,e23,S11,S22,S33,S12,S13,S23
 ZONE, T="0.1579D+01" F=FEPOINT, I=   12 J=    2 ET=BRICK
   0.0000000000E+00   0.0000000000E+00   0.0000000000E+00   0.0000000000E+00   0.0000000000E+00   0.0000000000E+00   0.0000000000E+00   0.0000000000E+00   0.0000000000E+00   0.0000000000E+00   0.0000000000E+00   0.0000000000E+00   0.0000000000E+00   0.0000000000E+00   0.0000000000E+00  -0.1237245100E+01  -0.7174253081E-14  -0.7053949141E-14  -0.4987062188E-16  -0.6770414744E-17  -0.7172196405E-19
   0.9158087158E+00   0.0000000000E+00   0.2585838921E-18   0.1000000000E-01   0.0000000000E+00  -0.4594022640E-17  -0.9419128418E-01   0.0000000000E+00   0.4852606532E-17   0.0000000000E+00   0.0000000000E+00   0.0000000000E+00   0.0000000000E+00   0.0000000000E+00   0.0000000000E+00  -0.1237245100E+01  -0.1174002886E-14  -0.1060604451E-14   0.4772547222E-16  -0.7935018867E-16  -0.6813409662E-17
   0.9158087158E+00   0.1041889435E+01   0.8991003376E-17   0.1000000000E-01  -0.4997669291E-02   0.2770920577E-17  -0.9419128418E-01   0.4688710386E-01   0.6220082799E-17   0.0000000000E+00   0.0000000000E+00   0.0000000000E+00   0.0000000000E+00   0.0000000000E+00   0.0000000000E+00  -0.1237245099E+01  -0.4450537003E-15  -0.4870605538E-15  -0.1574307238E-16   0.9328561956E-16   0.1153280296E-15
   0.0000000000E+00   0.1041889435E+01  -0.2081270268E-17   0.0000000000E+00  -0.4997669291E-02   0.2593947727E-17   0.0000000000E+00   0.4688710386E-01  -0.4675217995E-17   0.0000000000E+00   0.0000000000E+00   0.0000000000E+00   0.0000000000E+00   0.0000000000E+00   0.0000000000E+00  -0.1237245099E+01  -0.3979825190E-13  -0.3991674283E-13   0.8519598396E-16   0.2028529539E-16   0.2289913096E-16
   0.0000000000E+00   0.0000000000E+00   0.1041889435E+01   0.0000000000E+00   0.0000000000E+00  -0.4997669291E-02   0.0000000000E+00   0.0000000000E+00   0.4688710386E-01   0.0000000000E+00   0.0000000000E+00   0.0000000000E+00   0.0000000000E+00   0.0000000000E+00   0.0000000000E+00  -0.1237245099E+01   0.4793149008E-14   0.4773828761E-14   0.1306902423E-16   0.1359095177E-17   0.1190300481E-16
   0.9158087158E+00   0.0000000000E+00   0.1041889435E+01   0.1000000000E-01   0.0000000000E+00  -0.4997669291E-02  -0.9419128418E-01   0.0000000000E+00   0.4688710386E-01   0.0000000000E+00   0.0000000000E+00   0.0000000000E+00   0.0000000000E+00   0.0000000000E+00   0.0000000000E+00  -0.1237245099E+01   0.3225093354E-14   0.3338488643E-14   0.5785192338E-16  -0.9633955026E-16  -0.4476983220E-16
   0.9158087158E+00   0.1041889435E+01   0.1041889435E+01   0.1000000000E-01  -0.4997669291E-02  -0.4997669291E-02  -0.9419128418E-01   0.4688710386E-01   0.4688710386E-01   0.0000000000E+00   0.0000000000E+00   0.0000000000E+00   0.0000000000E+00   0.0000000000E+00   0.0000000000E+00  -0.1237245099E+01  -0.1686270650E-13  -0.1690470162E-13   0.7686311673E-16   0.7539675501E-16  -0.9774673655E-17
   0.0000000000E+00   0.1041889435E+01   0.1041889435E+01   0.0000000000E+00  -0.4997669291E-02  -0.4997669291E-02   0.0000000000E+00   0.4688710386E-01   0.4688710386E-01   0.0000000000E+00   0.0000000000E+00   0.0000000000E+00   0.0000000000E+00   0.0000000000E+00   0.0000000000E+00  -0.1237245099E+01  -0.1718063684E-13  -0.1743875940E-13  -0.4812430322E-16   0.4467876531E-16   0.9050825509E-17
   0.1831617432E+01   0.0000000000E+00   0.7707524726E-17   0.2000000000E-01   0.0000000000E+00   0.1433081214E-16  -0.1883825684E+00   0.0000000000E+00  -0.6623287413E-17   0.0000000000E+00   0.0000000000E+00   0.0000000000E+00   0.0000000000E+00   0.0000000000E+00   0.0000000000E+00  -0.1237245100E+01  -0.2632106751E-14  -0.2600373235E-14  -0.7312732012E-16  -0.1092420413E-15   0.6277312256E-16
   0.1831617432E+01   0.1041889435E+01   0.1072366924E-16   0.2000000000E-01  -0.4997669291E-02  -0.1329952419E-16  -0.1883825684E+00   0.4688710386E-01   0.2402319343E-16   0.0000000000E+00   0.0000000000E+00   0.0000000000E+00   0.0000000000E+00   0.0000000000E+00   0.0000000000E+00  -0.1237245099E+01   0.1042870731E-13   0.1018435386E-13  -0.1301611745E-15   0.1961369327E-15  -0.8304790677E-17
   0.1831617432E+01   0.0000000000E+00   0.1041889435E+01   0.2000000000E-01   0.0000000000E+00  -0.4997669291E-02  -0.1883825684E+00   0.0000000000E+00   0.4688710386E-01   0.0000000000E+00   0.0000000000E+00   0.0000000000E+00   0.0000000000E+00   0.0000000000E+00   0.0000000000E+00  -0.1237245099E+01  -0.5801375887E-14  -0.5629994709E-14  -0.4490070570E-16  -0.4596156214E-17  -0.1355700061E-15
   0.1831617432E+01   0.1041889435E+01   0.1041889435E+01   0.2000000000E-01  -0.4997669291E-02  -0.4997669291E-02  -0.1883825684E+00   0.4688710386E-01   0.4688710386E-01   0.0000000000E+00   0.0000000000E+00   0.0000000000E+00   0.0000000000E+00   0.0000000000E+00   0.0000000000E+00  -0.1237245099E+01  -0.4502399119E-13  -0.4512880062E-13  -0.5928895572E-16  -0.1927221821E-15  -0.8353500750E-16
     1     2     3     4     5     6     7     8
     2     9    10     3     6    11    12     7
 VARIABLES = X,Y,Z,DU1,DU2,DU3,U1,U2,U3,e11,e22,e33,e12,e13,e23,S11,S22,S33,S12,S13,S23
 ZONE, T="0.1629D+01" F=FEPOINT, I=   12 J=    2 ET=BRICK
   0.0000000000E+00   0.0000000000E+00   0.0000000000E+00   0.0000000000E+00   0.0000000000E+00   0.0000000000E+00   0.0000000000E+00   0.0000000000E+00   0.0000000000E+00   0.0000000000E+00   0.0000000000E+00   0.0000000000E+00   0.0000000000E+00   0.0000000000E+00   0.0000000000E+00  -0.1221675199E+01  -0.1124390059E-12  -0.1124517838E-12   0.8027391965E-17  -0.1306149990E-16   0.1340673524E-15
   0.9258087158E+00   0.0000000000E+00   0.3256854392E-17   0.1000000000E-01   0.0000000000E+00   0.2998270500E-17  -0.8419128418E-01   0.0000000000E+00   0.2585838921E-18   0.0000000000E+00   0.0000000000E+00   0.0000000000E+00   0.0000000000E+00   0.0000000000E+00   0.0000000000E+00  -0.1221675199E+01  -0.1094756983E-12  -0.1092341462E-12  -0.5924552510E-16  -0.1539564020E-15   0.1287291616E-15
   0.9258087158E+00   0.1036892030E+01   0.2573621197E-16   0.1000000000E-01  -0.4997405017E-02   0.1674520859E-16  -0.8419128418E-01   0.4188943457E-01   0.8991003376E-17   0.0000000000E+00   0.0000000000E+00   0.0000000000E+00   0.0000000000E+00   0.0000000000E+00   0.0000000000E+00  -0.1221675199E+01  -0.1153615765E-12  -0.1153183150E-12  -0.5455854035E-16   0.2425212739E-15   0.1839295103E-15
   0.0000000000E+00   0.1036892030E+01   0.2310650414E-16   0.0000000000E+00  -0.4997405017E-02   0.2518777441E-16   0.0000000000E+00   0.4188943457E-01  -0.2081270268E-17   0.0000000000E+00   0.0000000000E+00   0.0000000000E+00   0.0000000000E+00   0.0000000000E+00   0.0000000000E+00  -0.1221675199E+01  -0.1054880946E-12  -0.1057563812E-12   0.4517776005E-16  -0.1793747757E-16   0.5883306114E-16
   0.0000000000E+00   0.0000000000E+00   0.1036892030E+01   0.0000000000E+00   0.0000000000E+00  -0.4997405017E-02   0.0000000000E+00   0.0000000000E+00   0.4188943457E-01   0.0000000000E+00   0.0000000000E+00   0.0000000000E+00   0.0000000000E+00   0.0000000000E+00   0.0000000000E+00  -0.1221675199E+01  -0.1149650994E-12  -0.1148843605E-12  -0.6162629104E-17   0.4087462830E-16  -0.5188532381E-16
   0.9258087158E+00   0.0000000000E+00   0.1036892030E+01   0.1000000000E-01   0.0000000000E+00  -0.4997405017E-02  -0.8419128418E-01   0.0000000000E+00   0.4188943457E-01   0.0000000000E+00   0.0000000000E+00   0.0000000000E+00   0.0000000000E+00   0.0000000000E+00   0.0000000000E+00  -0.1221675199E+01  -0.9672025219E-13  -0.9674955832E-13   0.2521773768E-15  -0.1060211890E-15  -0.9453087981E-16
   0.9258087158E+00   0.1036892030E+01   0.1036892030E+01   0.1000000000E-01  -0.4997405017E-02  -0.4997405017E-02  -0.8419128418E-01   0.4188943457E-01   0.4188943457E-01   0.0000000000E+00   0.0000000000E+00   0.0000000000E+00   0.0000000000E+00   0.0000000000E+00   0.0000000000E+00  -0.1221675199E+01  -0.1025643346E-12  -0.1027918907E-12   0.2626297016E-15   0.1885181834E-15  -0.1968992140E-15
   0.0000000000E+00   0.1036892030E+01   0.1036892030E+01   0.0000000000E+00  -0.4997405017E-02  -0.4997405017E-02   0.0000000000E+00   0.4188943457E-01   0.4188943457E-01   0.0000000000E+00   0.0000000000E+00   0.0000000000E+00   0.0000000000E+00   0.0000000000E+00   0.0000000000E+00  -0.1221675199E+01  -0.1080351118E-12  -0.1082098762E-12  -0.3773959432E-16  -0.6834281380E-16  -0.5899698514E-16
   0.1851617432E+01   0.0000000000E+00   0.1943261231E-16   0.2000000000E-01   0.0000000000E+00   0.1172508759E-16  -0.1683825684E+00   0.0000000000E+00   0.7707524726E-17   0.0000000000E+00   0.0000000000E+00   0.0000000000E+00   0.0000000000E+00   0.0000000000E+00   0.0000000000E+00  -0.1221675199E+01  -0.6911520347E-13  -0.6902881692E-13  -0.4379399904E-17  -0.2006679521E-15  -0.3865679294E-16
   0.1851617432E+01   0.1036892030E+01   0.1101777817E-16   0.2000000000E-01  -0.4997405017E-02   0.2941089335E-18  -0.1683825684E+00   0.4188943457E-01   0.1072366924E-16   0.0000000000E+00   0.0000000000E+00   0.0000000000E+00   0.0000000000E+00   0.0000000000E+00   0.0000000000E+00  -0.1221675199E+01  -0.8775419821E-13  -0.8780888419E-13   0.2751309339E-17  -0.2707584281E-16  -0.3162654639E-17
   0.1851617432E+01   0.0000000000E+00   0.1036892030E+01   0.2000000000E-01   0.0000000000E+00  -0.4997405017E-02  -0.1683825684E+00   0.0000000000E+00   0.4188943457E-01   0.0000000000E+00   0.0000000000E+00   0.0000000000E+00   0.0000000000E+00   0.0000000000E+00   0.0000000000E+00  -0.1221675199E+01  -0.1036734828E-12  -0.1035355419E-12   0.6123487409E-16   0.2776551332E-15  -0.2456324131E-15
   0.1851617432E+01   0.1036892030E+01   0.1036892030E+01   0.2000000000E-01  -0.4997405017E-02  -0.4997405017E-02  -0.1683825684E+00   0.4188943457E-01   0.4188943457E-01   0.0000000000E+00   0.0000000000E+00   0.0000000000E+00   0.0000000000E+00   0.0000000000E+00   0.0000000000E+00  -0.1221675199E+01  -0.1226042915E-12  -0.1226073473E-12   0.6807790041E-16  -0.2787128695E-15   0.1593941991E-15
     1     2     3     4     5     6     7     8
     2     9    10     3     6    11    12     7
 VARIABLES = X,Y,Z,DU1,DU2,DU3,U1,U2,U3,e11,e22,e33,e12,e13,e23,S11,S22,S33,S12,S13,S23
 ZONE, T="0.1679D+01" F=FEPOINT, I=   12 J=    2 ET=BRICK
   0.0000000000E+00   0.0000000000E+00   0.0000000000E+00   0.0000000000E+00   0.0000000000E+00   0.0000000000E+00   0.0000000000E+00   0.0000000000E+00   0.0000000000E+00   0.0000000000E+00   0.0000000000E+00   0.0000000000E+00   0.0000000000E+00   0.0000000000E+00   0.0000000000E+00  -0.1204084587E+01  -0.1909117876E-12  -0.1909762219E-12   0.2095452445E-16  -0.2965800847E-16   0.2373770718E-16
   0.9358087158E+00   0.0000000000E+00  -0.2369331778E-17   0.1000000000E-01   0.0000000000E+00  -0.5626186170E-17  -0.7419128418E-01   0.0000000000E+00   0.3256854392E-17   0.0000000000E+00   0.0000000000E+00   0.0000000000E+00   0.0000000000E+00   0.0000000000E+00   0.0000000000E+00  -0.1204084587E+01  -0.2189504011E-12  -0.2188968358E-12  -0.6863126801E-16   0.4163061003E-16   0.5580365465E-17
   0.9358087158E+00   0.1031894961E+01   0.1294770916E-18   0.1000000000E-01  -0.4997068231E-02  -0.2560673488E-16  -0.7419128418E-01   0.3689202956E-01   0.2573621197E-16   0.0000000000E+00   0.0000000000E+00   0.0000000000E+00   0.0000000000E+00   0.0000000000E+00   0.0000000000E+00  -0.1204084587E+01  -0.2331207171E-12  -0.2331901959E-12  -0.8967654923E-16  -0.6999931362E-16   0.6897863045E-16
   0.0000000000E+00   0.1031894961E+01   0.7753589626E-17   0.0000000000E+00  -0.4997068231E-02  -0.1535291451E-16   0.0000000000E+00   0.3689202956E-01   0.2310650414E-16   0.0000000000E+00   0.0000000000E+00   0.0000000000E+00   0.0000000000E+00   0.0000000000E+00   0.0000000000E+00  -0.1204084587E+01  -0.2368413973E-12  -0.2368920502E-12  -0.4088599914E-16   0.9505872219E-17  -0.1990574277E-16
   0.0000000000E+00   0.0000000000E+00   0.1031894961E+01   0.0000000000E+00   0.0000000000E+00  -0.4997068231E-02   0.0000000000E+00   0.0000000000E+00   0.3689202956E-01   0.0000000000E+00   0.0000000000E+00   0.0000000000E+00   0.0000000000E+00   0.0000000000E+00   0.0000000000E+00  -0.1204084587E+01  -0.2201255232E-12  -0.2199640471E-12   0.7617183594E-17   0.3365131444E-16   0.1004186291E-15
   0.9358087158E+00   0.0000000000E+00   0.1031894961E+01   0.1000000000E-01   0.0000000000E+00  -0.4997068231E-02  -0.7419128418E-01   0.0000000000E+00   0.3689202956E-01   0.0000000000E+00   0.0000000000E+00   0.0000000000E+00   0.0000000000E+00   0.0000000000E+00   0.0000000000E+00  -0.1204084587E+01  -0.2234247859E-12  -0.2233712207E-12  -0.9157648036E-16   0.1014679563E-15  -0.1032139177E-15
   0.9358087158E+00   0.1031894961E+01   0.1031894961E+01   0.1000000000E-01  -0.4997068231E-02  -0.4997068231E-02  -0.7419128418E-01   0.3689202956E-01   0.3689202956E-01   0.0000000000E+00   0.0000000000E+00   0.0000000000E+00   0.0000000000E+00   0.0000000000E+00   0.0000000000E+00  -0.1204084587E+01  -0.2167784233E-12  -0.2168479021E-12   0.2462027857E-16  -0.2732084269E-17  -0.9917767056E-16
   0.0000000000E+00   0.1031894961E+01   0.1031894961E+01   0.0000000000E+00  -0.4997068231E-02  -0.4997068231E-02   0.0000000000E+00   0.3689202956E-01   0.3689202956E-01   0.0000000000E+00   0.0000000000E+00   0.0000000000E+00   0.0000000000E+00   0.0000000000E+00   0.0000000000E+00  -0.1204084587E+01  -0.2140134369E-12  -0.2138381792E-12   0.3252486459E-16  -0.8959544447E-16  -0.1186353272E-15
   0.1871617432E+01   0.0000000000E+00  -0.4903497346E-17   0.2000000000E-01   0.0000000000E+00  -0.2433610966E-16  -0.1483825684E+00   0.0000000000E+00   0.1943261231E-16   0.0000000000E+00   0.0000000000E+00   0.0000000000E+00   0.0000000000E+00   0.0000000000E+00   0.0000000000E+00  -0.1204084587E+01  -0.2307771503E-12  -0.2303998524E-12  -0.1561794032E-16   0.3059721605E-15   0.9887475303E-16
   0.1871617432E+01   0.1031894961E+01   0.8419548199E-17   0.2000000000E-01  -0.4997068231E-02  -0.2598229975E-17  -0.1483825684E+00   0.3689202956E-01   0.1101777817E-16   0.0000000000E+00   0.0000000000E+00   0.0000000000E+00   0.0000000000E+00   0.0000000000E+00   0.0000000000E+00  -0.1204084587E+01  -0.2337439923E-12  -0.2338874229E-12  -0.1209406993E-15  -0.5040121027E-15   0.2112202284E-15
   0.1871617432E+01   0.0000000000E+00   0.1031894961E+01   0.2000000000E-01   0.0000000000E+00  -0.4997068231E-02  -0.1483825684E+00   0.0000000000E+00   0.3689202956E-01   0.0000000000E+00   0.0000000000E+00   0.0000000000E+00   0.0000000000E+00   0.0000000000E+00   0.0000000000E+00  -0.1204084587E+01  -0.2105121844E-12  -0.2103607970E-12  -0.5504163299E-16  -0.1098182099E-15  -0.4392041108E-16
   0.1871617432E+01   0.1031894961E+01   0.1031894961E+01   0.2000000000E-01  -0.4997068231E-02  -0.4997068231E-02  -0.1483825684E+00   0.3689202956E-01   0.3689202956E-01   0.0000000000E+00   0.0000000000E+00   0.0000000000E+00   0.0000000000E+00   0.0000000000E+00   0.0000000000E+00  -0.1204084587E+01  -0.2238873652E-12  -0.2242567064E-12   0.1394446302E-15   0.1946465268E-15  -0.1985972039E-18
     1     2     3     4     5     6     7     8
     2     9    10     3     6    11    12     7
 VARIABLES = X,Y,Z,DU1,DU2,DU3,U1,U2,U3,e11,e22,e33,e12,e13,e23,S11,S22,S33,S12,S13,S23
 ZONE, T="0.1729D+01" F=FEPOINT, I=   12 J=    2 ET=BRICK
   0.0000000000E+00   0.0000000000E+00   0.0000000000E+00   0.0000000000E+00   0.0000000000E+00   0.0000000000E+00   0.0000000000E+00   0.0000000000E+00   0.0000000000E+00   0.0000000000E+00   0.0000000000E+00   0.0000000000E+00   0.0000000000E+00   0.0000000000E+00   0.0000000000E+00  -0.1183824715E+01  -0.5364447812E-12  -0.5364233078E-12  -0.6186284688E-17   0.5004124364E-16  -0.6515229959E-16
   0.9458087158E+00   0.0000000000E+00   0.5291749721E-17   0.1000000000E-01   0.0000000000E+00   0.7661081499E-17  -0.6419128418E-01   0.0000000000E+00  -0.2369331778E-17   0.0000000000E+00   0.0000000000E+00   0.0000000000E+00   0.0000000000E+00   0.0000000000E+00   0.0000000000E+00  -0.1183824715E+01  -0.5340322051E-12  -0.5340195538E-12   0.1529579633E-15  -0.7821511748E-16   0.2014605976E-16
   0.9458087158E+00   0.1026898338E+01   0.3684700715E-17   0.1000000000E-01  -0.4996623355E-02   0.3555223623E-17  -0.6419128418E-01   0.3189496133E-01   0.1294770916E-18   0.0000000000E+00   0.0000000000E+00   0.0000000000E+00   0.0000000000E+00   0.0000000000E+00   0.0000000000E+00  -0.1183824714E+01  -0.5441298242E-12  -0.5441770715E-12   0.1234021654E-15   0.1622682059E-16  -0.1359101117E-15
   0.0000000000E+00   0.1026898338E+01  -0.8883642117E-17   0.0000000000E+00  -0.4996623355E-02  -0.1663723174E-16   0.0000000000E+00   0.3189496133E-01   0.7753589626E-17   0.0000000000E+00   0.0000000000E+00   0.0000000000E+00   0.0000000000E+00   0.0000000000E+00   0.0000000000E+00  -0.1183824714E+01  -0.5333110053E-12  -0.5332873817E-12   0.1213514230E-15   0.1463900813E-16   0.8527775328E-16
   0.0000000000E+00   0.0000000000E+00   0.1026898338E+01   0.0000000000E+00   0.0000000000E+00  -0.4996623355E-02   0.0000000000E+00   0.0000000000E+00   0.3189496133E-01   0.0000000000E+00   0.0000000000E+00   0.0000000000E+00   0.0000000000E+00   0.0000000000E+00   0.0000000000E+00  -0.1183824714E+01  -0.5360085415E-12  -0.5360368076E-12   0.1088729017E-16   0.3016753246E-16  -0.5610343157E-16
   0.9458087158E+00   0.0000000000E+00   0.1026898338E+01   0.1000000000E-01   0.0000000000E+00  -0.4996623355E-02  -0.6419128418E-01   0.0000000000E+00   0.3189496133E-01   0.0000000000E+00   0.0000000000E+00   0.0000000000E+00   0.0000000000E+00   0.0000000000E+00   0.0000000000E+00  -0.1183824714E+01  -0.5311153174E-12  -0.5310587853E-12  -0.5197180674E-16  -0.2314616776E-16  -0.3415873150E-17
   0.9458087158E+00   0.1026898338E+01   0.1026898338E+01   0.1000000000E-01  -0.4996623355E-02  -0.4996623355E-02  -0.6419128418E-01   0.3189496133E-01   0.3189496133E-01   0.0000000000E+00   0.0000000000E+00   0.0000000000E+00   0.0000000000E+00   0.0000000000E+00   0.0000000000E+00  -0.1183824714E+01  -0.5410813347E-12  -0.5410847011E-12  -0.1086429105E-15  -0.1459208513E-15   0.3962592073E-16
   0.0000000000E+00   0.1026898338E+01   0.1026898338E+01   0.0000000000E+00  -0.4996623355E-02  -0.4996623355E-02   0.0000000000E+00   0.3189496133E-01   0.3189496133E-01   0.0000000000E+00   0.0000000000E+00   0.0000000000E+00   0.0000000000E+00   0.0000000000E+00   0.0000000000E+00  -0.1183824714E+01  -0.5328924173E-12  -0.5329185331E-12  -0.1277183156E-15   0.1250686770E-15   0.2957101277E-16
   0.1891617432E+01   0.0000000000E+00   0.2160757539E-17   0.2000000000E-01   0.0000000000E+00   0.7064254885E-17  -0.1283825684E+00   0.0000000000E+00  -0.4903497346E-17   0.0000000000E+00   0.0000000000E+00   0.0000000000E+00   0.0000000000E+00   0.0000000000E+00   0.0000000000E+00  -0.1183824715E+01  -0.5278655332E-12  -0.5279814840E-12   0.2709213189E-16   0.3018362473E-15   0.1767260678E-15
   0.1891617432E+01   0.1026898338E+01   0.2407318666E-16   0.2000000000E-01  -0.4996623355E-02   0.1565363846E-16  -0.1283825684E+00   0.3189496133E-01   0.8419548199E-17   0.0000000000E+00   0.0000000000E+00   0.0000000000E+00   0.0000000000E+00   0.0000000000E+00   0.0000000000E+00  -0.1183824714E+01  -0.5406749823E-12  -0.5407609838E-12  -0.6834245076E-16  -0.1945808928E-15   0.1420575327E-15
   0.1891617432E+01   0.0000000000E+00   0.1026898338E+01   0.2000000000E-01   0.0000000000E+00  -0.4996623355E-02  -0.1283825684E+00   0.0000000000E+00   0.3189496133E-01   0.0000000000E+00   0.0000000000E+00   0.0000000000E+00   0.0000000000E+00   0.0000000000E+00   0.0000000000E+00  -0.1183824714E+01  -0.5222047938E-12  -0.5221833247E-12   0.2139231909E-16   0.1551264386E-15  -0.7598746767E-16
   0.1891617432E+01   0.1026898338E+01   0.1026898338E+01   0.2000000000E-01  -0.4996623355E-02  -0.4996623355E-02  -0.1283825684E+00   0.3189496133E-01   0.3189496133E-01   0.0000000000E+00   0.0000000000E+00   0.0000000000E+00   0.0000000000E+00   0.0000000000E+00   0.0000000000E+00  -0.1183824714E+01  -0.5352597137E-12  -0.5352082953E-12   0.4328766927E-16   0.4391265835E-16  -0.1360394117E-15
     1     2     3     4     5     6     7     8
     2     9    10     3     6    11    12     7
 VARIABLES = X,Y,Z,DU1,DU2,DU3,U1,U2,U3,e11,e22,e33,e12,e13,e23,S11,S22,S33,S12,S13,S23
 ZONE, T="0.1779D+01" F=FEPOINT, I=   12 J=    2 ET=BRICK
   0.0000000000E+00   0.0000000000E+00   0.0000000000E+00   0.0000000000E+00   0.0000000000E+00   0.0000000000E+00   0.0000000000E+00   0.0000000000E+00   0.0000000000E+00   0.0000000000E+00   0.0000000000E+00   0.0000000000E+00   0.0000000000E+00   0.0000000000E+00   0.0000000000E+00  -0.1159863351E+01  -0.1510141462E-11  -0.1510163223E-11   0.3529929871E-17   0.3905390251E-16  -0.6817798338E-16
   0.9558087158E+00   0.0000000000E+00   0.4401920579E-17   0.1000000000E-01   0.0000000000E+00  -0.8898291427E-18  -0.5419128418E-01   0.0000000000E+00   0.5291749721E-17   0.0000000000E+00   0.0000000000E+00   0.0000000000E+00   0.0000000000E+00   0.0000000000E+00   0.0000000000E+00  -0.1159863351E+01  -0.1512110704E-11  -0.1512292251E-11  -0.8566128375E-16  -0.8827370184E-16  -0.6406485028E-17
   0.9558087158E+00   0.1021902332E+01   0.2121060239E-17   0.1000000000E-01  -0.4996006439E-02  -0.1563640476E-17  -0.5419128418E-01   0.2689833797E-01   0.3684700715E-17   0.0000000000E+00   0.0000000000E+00   0.0000000000E+00   0.0000000000E+00   0.0000000000E+00   0.0000000000E+00  -0.1159863351E+01  -0.1507764341E-11  -0.1507801902E-11  -0.8574397452E-16  -0.7637023354E-16  -0.7898326687E-16
   0.0000000000E+00   0.1021902332E+01  -0.9658124697E-17   0.0000000000E+00  -0.4996006439E-02  -0.7744825802E-18   0.0000000000E+00   0.2689833797E-01  -0.8883642117E-17   0.0000000000E+00   0.0000000000E+00   0.0000000000E+00   0.0000000000E+00   0.0000000000E+00   0.0000000000E+00  -0.1159863351E+01  -0.1512460575E-11  -0.1512237856E-11  -0.1668181599E-16   0.1189261175E-15  -0.3967488085E-16
   0.0000000000E+00   0.0000000000E+00   0.1021902332E+01   0.0000000000E+00   0.0000000000E+00  -0.4996006439E-02   0.0000000000E+00   0.0000000000E+00   0.2689833797E-01   0.0000000000E+00   0.0000000000E+00   0.0000000000E+00   0.0000000000E+00   0.0000000000E+00   0.0000000000E+00  -0.1159863351E+01  -0.1527616691E-11  -0.1527667360E-11  -0.3284955665E-17   0.1503031165E-15  -0.4159027368E-16
   0.9558087158E+00   0.0000000000E+00   0.1021902332E+01   0.1000000000E-01   0.0000000000E+00  -0.4996006439E-02  -0.5419128418E-01   0.0000000000E+00   0.2689833797E-01   0.0000000000E+00   0.0000000000E+00   0.0000000000E+00   0.0000000000E+00   0.0000000000E+00   0.0000000000E+00  -0.1159863351E+01  -0.1517000931E-11  -0.1517057781E-11  -0.7215226151E-16  -0.1041668254E-15   0.9678391455E-16
   0.9558087158E+00   0.1021902332E+01   0.1021902332E+01   0.1000000000E-01  -0.4996006439E-02  -0.4996006439E-02  -0.5419128418E-01   0.2689833797E-01   0.2689833797E-01   0.0000000000E+00   0.0000000000E+00   0.0000000000E+00   0.0000000000E+00   0.0000000000E+00   0.0000000000E+00  -0.1159863351E+01  -0.1523154199E-11  -0.1523066893E-11  -0.8009713799E-16  -0.7550005825E-16   0.5770440245E-16
   0.0000000000E+00   0.1021902332E+01   0.1021902332E+01   0.0000000000E+00  -0.4996006439E-02  -0.4996006439E-02   0.0000000000E+00   0.2689833797E-01   0.2689833797E-01   0.0000000000E+00   0.0000000000E+00   0.0000000000E+00   0.0000000000E+00   0.0000000000E+00   0.0000000000E+00  -0.1159863351E+01  -0.1524743881E-11  -0.1524550297E-11   0.2515675766E-16   0.4165989520E-16   0.1428067009E-15
   0.1911617432E+01   0.0000000000E+00  -0.2695086013E-17   0.2000000000E-01   0.0000000000E+00  -0.4855843552E-17  -0.1083825684E+00   0.0000000000E+00   0.2160757539E-17   0.0000000000E+00   0.0000000000E+00   0.0000000000E+00   0.0000000000E+00   0.0000000000E+00   0.0000000000E+00  -0.1159863351E+01  -0.1518033742E-11  -0.1517943001E-11   0.6337160062E-16   0.5386331378E-16   0.7773470510E-16
   0.1911617432E+01   0.1021902332E+01   0.6578595371E-17   0.2000000000E-01  -0.4996006439E-02  -0.1749459129E-16  -0.1083825684E+00   0.2689833797E-01   0.2407318666E-16   0.0000000000E+00   0.0000000000E+00   0.0000000000E+00   0.0000000000E+00   0.0000000000E+00   0.0000000000E+00  -0.1159863351E+01  -0.1527656060E-11  -0.1527886753E-11   0.1386929633E-15  -0.2469385430E-16   0.4170823480E-16
   0.1911617432E+01   0.0000000000E+00   0.1021902332E+01   0.2000000000E-01   0.0000000000E+00  -0.4996006439E-02  -0.1083825684E+00   0.0000000000E+00   0.2689833797E-01   0.0000000000E+00   0.0000000000E+00   0.0000000000E+00   0.0000000000E+00   0.0000000000E+00   0.0000000000E+00  -0.1159863351E+01  -0.1499930578E-11  -0.1499743908E-11  -0.7342562217E-17   0.1105649726E-16   0.3796039640E-16
   0.1911617432E+01   0.1021902332E+01   0.1021902332E+01   0.2000000000E-01  -0.4996006439E-02  -0.4996006439E-02  -0.1083825684E+00   0.2689833797E-01   0.2689833797E-01   0.0000000000E+00   0.0000000000E+00   0.0000000000E+00   0.0000000000E+00   0.0000000000E+00   0.0000000000E+00  -0.1159863350E+01  -0.1535743938E-11  -0.1535878981E-11  -0.5201018306E-16   0.2373401909E-15  -0.2216679769E-15
     1     2     3     4     5     6     7     8
     2     9    10     3     6    11    12     7
 VARIABLES = X,Y,Z,DU1,DU2,DU3,U1,U2,U3,e11,e22,e33,e12,e13,e23,S11,S22,S33,S12,S13,S23
 ZONE, T="0.1829D+01" F=FEPOINT, I=   12 J=    2 ET=BRICK
   0.0000000000E+00   0.0000000000E+00   0.0000000000E+00   0.0000000000E+00   0.0000000000E+00   0.0000000000E+00   0.0000000000E+00   0.0000000000E+00   0.0000000000E+00   0.0000000000E+00   0.0000000000E+00   0.0000000000E+00   0.0000000000E+00   0.0000000000E+00   0.0000000000E+00  -0.1130398864E+01  -0.5459112952E-11  -0.5459119976E-11  -0.1955138782E-17   0.2578989371E-16  -0.7823649416E-16
   0.9658087158E+00   0.0000000000E+00   0.2257617973E-17   0.1000000000E-01   0.0000000000E+00  -0.2144302606E-17  -0.4419128418E-01   0.0000000000E+00   0.4401920579E-17   0.0000000000E+00   0.0000000000E+00   0.0000000000E+00   0.0000000000E+00   0.0000000000E+00   0.0000000000E+00  -0.1130398864E+01  -0.5458181595E-11  -0.5458167547E-11  -0.2952421950E-15  -0.3398857011E-15  -0.5061118434E-16
   0.9658087158E+00   0.1016907242E+01  -0.3305548106E-17   0.1000000000E-01  -0.4995089252E-02  -0.5426608346E-17  -0.4419128418E-01   0.2190233153E-01   0.2121060239E-17   0.0000000000E+00   0.0000000000E+00   0.0000000000E+00   0.0000000000E+00   0.0000000000E+00   0.0000000000E+00  -0.1130398864E+01  -0.5461119746E-11  -0.5461172175E-11  -0.2701457300E-15   0.3018148382E-15  -0.4547458458E-16
   0.0000000000E+00   0.1016907242E+01  -0.7935553327E-17   0.0000000000E+00  -0.4995089252E-02   0.1722571370E-17   0.0000000000E+00   0.2190233153E-01  -0.9658124697E-17   0.0000000000E+00   0.0000000000E+00   0.0000000000E+00   0.0000000000E+00   0.0000000000E+00   0.0000000000E+00  -0.1130398864E+01  -0.5457643875E-11  -0.5457617661E-11   0.3902736806E-16   0.3913605889E-16   0.8084851708E-17
   0.0000000000E+00   0.0000000000E+00   0.1016907242E+01   0.0000000000E+00   0.0000000000E+00  -0.4995089252E-02   0.0000000000E+00   0.0000000000E+00   0.2190233153E-01   0.0000000000E+00   0.0000000000E+00   0.0000000000E+00   0.0000000000E+00   0.0000000000E+00   0.0000000000E+00  -0.1130398864E+01  -0.5459112951E-11  -0.5459119975E-11  -0.7161780605E-17   0.1300054856E-15   0.6696856801E-16
   0.9658087158E+00   0.0000000000E+00   0.1016907242E+01   0.1000000000E-01   0.0000000000E+00  -0.4995089252E-02  -0.4419128418E-01   0.0000000000E+00   0.2190233153E-01   0.0000000000E+00   0.0000000000E+00   0.0000000000E+00   0.0000000000E+00   0.0000000000E+00   0.0000000000E+00  -0.1130398864E+01  -0.5458181594E-11  -0.5458167546E-11   0.2413620461E-15  -0.3338081858E-15  -0.4514795075E-16
   0.9658087158E+00   0.1016907242E+01   0.1016907242E+01   0.1000000000E-01  -0.4995089252E-02  -0.4995089252E-02  -0.4419128418E-01   0.2190233153E-01   0.2190233153E-01   0.0000000000E+00   0.0000000000E+00   0.0000000000E+00   0.0000000000E+00   0.0000000000E+00   0.0000000000E+00  -0.1130398864E+01  -0.5461119745E-11  -0.5461172174E-11   0.2238669793E-15   0.2780737724E-15   0.2457629059E-16
   0.0000000000E+00   0.1016907242E+01   0.1016907242E+01   0.0000000000E+00  -0.4995089252E-02  -0.4995089252E-02   0.0000000000E+00   0.2190233153E-01   0.2190233153E-01   0.0000000000E+00   0.0000000000E+00   0.0000000000E+00   0.0000000000E+00   0.0000000000E+00   0.0000000000E+00  -0.1130398864E+01  -0.5457643875E-11  -0.5457617660E-11  -0.1331646555E-15  -0.1217581694E-15   0.2279094515E-15
   0.1931617432E+01   0.0000000000E+00  -0.5622049809E-18   0.2000000000E-01   0.0000000000E+00   0.2132881032E-17  -0.8838256836E-01   0.0000000000E+00  -0.2695086013E-17   0.0000000000E+00   0.0000000000E+00   0.0000000000E+00   0.0000000000E+00   0.0000000000E+00   0.0000000000E+00  -0.1130398864E+01  -0.5457250238E-11  -0.5457215117E-11   0.7943454092E-17   0.3385766124E-15   0.1035233801E-16
   0.1931617432E+01   0.1016907242E+01  -0.1686699832E-17   0.2000000000E-01  -0.4995089252E-02  -0.8265295203E-17  -0.8838256836E-01   0.2190233153E-01   0.6578595371E-17   0.0000000000E+00   0.0000000000E+00   0.0000000000E+00   0.0000000000E+00   0.0000000000E+00   0.0000000000E+00  -0.1130398864E+01  -0.5464595616E-11  -0.5464726689E-11  -0.4936261020E-16  -0.2188859362E-15  -0.2016702259E-16
   0.1931617432E+01   0.0000000000E+00   0.1016907242E+01   0.2000000000E-01   0.0000000000E+00  -0.4995089252E-02  -0.8838256836E-01   0.0000000000E+00   0.2190233153E-01   0.0000000000E+00   0.0000000000E+00   0.0000000000E+00   0.0000000000E+00   0.0000000000E+00   0.0000000000E+00  -0.1130398864E+01  -0.5457250238E-11  -0.5457215117E-11  -0.2708826448E-16   0.3653536477E-15  -0.8739918419E-16
   0.1931617432E+01   0.1016907242E+01   0.1016907242E+01   0.2000000000E-01  -0.4995089252E-02  -0.4995089252E-02  -0.8838256836E-01   0.2190233153E-01   0.2190233153E-01   0.0000000000E+00   0.0000000000E+00   0.0000000000E+00   0.0000000000E+00   0.0000000000E+00   0.0000000000E+00  -0.1130398864E+01  -0.5464595616E-11  -0.5464726688E-11   0.2700712362E-16  -0.2467970537E-15   0.6593868162E-16
     1     2     3     4     5     6     7     8
     2     9    10     3     6    11    12     7
 VARIABLES = X,Y,Z,DU1,DU2,DU3,U1,U2,U3,e11,e22,e33,e12,e13,e23,S11,S22,S33,S12,S13,S23
 ZONE, T="0.1879D+01" F=FEPOINT, I=   12 J=    2 ET=BRICK
   0.0000000000E+00   0.0000000000E+00   0.0000000000E+00   0.0000000000E+00   0.0000000000E+00   0.0000000000E+00   0.0000000000E+00   0.0000000000E+00   0.0000000000E+00   0.0000000000E+00   0.0000000000E+00   0.0000000000E+00   0.0000000000E+00   0.0000000000E+00   0.0000000000E+00  -0.1091811235E+01  -0.2904670720E-10  -0.2904647048E-10   0.1036758243E-16   0.1730974388E-15   0.1009541260E-15
   0.9758087158E+00   0.0000000000E+00   0.7649269440E-17   0.1000000000E-01   0.0000000000E+00   0.5391651466E-17  -0.3419128418E-01   0.0000000000E+00   0.2257617973E-17   0.0000000000E+00   0.0000000000E+00   0.0000000000E+00   0.0000000000E+00   0.0000000000E+00   0.0000000000E+00  -0.1091811235E+01  -0.2905185571E-10  -0.2905178407E-10   0.6247511577E-16  -0.1157118724E-15  -0.3620695447E-16
   0.9758087158E+00   0.1011913674E+01   0.6233457932E-17   0.1000000000E-01  -0.4993568728E-02   0.9539006038E-17  -0.3419128418E-01   0.1690724228E-01  -0.3305548106E-17   0.0000000000E+00   0.0000000000E+00   0.0000000000E+00   0.0000000000E+00   0.0000000000E+00   0.0000000000E+00  -0.1091811235E+01  -0.2904639062E-10  -0.2904643859E-10   0.2765576373E-16   0.6963416494E-16  -0.6928213532E-16
   0.0000000000E+00   0.1011913674E+01   0.4095095493E-17   0.0000000000E+00  -0.4993568728E-02   0.1203064882E-16   0.0000000000E+00   0.1690724228E-01  -0.7935553327E-17   0.0000000000E+00   0.0000000000E+00   0.0000000000E+00   0.0000000000E+00   0.0000000000E+00   0.0000000000E+00  -0.1091811235E+01  -0.2904586783E-10  -0.2904611641E-10   0.1155166858E-15  -0.2401360234E-16   0.1517595732E-15
   0.0000000000E+00   0.0000000000E+00   0.1011913674E+01   0.0000000000E+00   0.0000000000E+00  -0.4993568728E-02   0.0000000000E+00   0.0000000000E+00   0.1690724228E-01   0.0000000000E+00   0.0000000000E+00   0.0000000000E+00   0.0000000000E+00   0.0000000000E+00   0.0000000000E+00  -0.1091811235E+01  -0.2904687719E-10  -0.2904658671E-10  -0.3393050191E-16  -0.7032032540E-17  -0.1210800893E-15
   0.9758087158E+00   0.0000000000E+00   0.1011913674E+01   0.1000000000E-01   0.0000000000E+00  -0.4993568728E-02  -0.3419128418E-01   0.0000000000E+00   0.1690724228E-01   0.0000000000E+00   0.0000000000E+00   0.0000000000E+00   0.0000000000E+00   0.0000000000E+00   0.0000000000E+00  -0.1091811235E+01  -0.2904491709E-10  -0.2904495293E-10   0.6464215477E-16  -0.1434329763E-15  -0.5724395556E-16
   0.9758087158E+00   0.1011913674E+01   0.1011913674E+01   0.1000000000E-01  -0.4993568728E-02  -0.4993568728E-02  -0.3419128418E-01   0.1690724228E-01   0.1690724228E-01   0.0000000000E+00   0.0000000000E+00   0.0000000000E+00   0.0000000000E+00   0.0000000000E+00   0.0000000000E+00  -0.1091811234E+01  -0.2905517198E-10  -0.2905532751E-10   0.9663805080E-16  -0.5379282283E-17   0.2804490668E-16
   0.0000000000E+00   0.1011913674E+01   0.1011913674E+01   0.0000000000E+00  -0.4993568728E-02  -0.4993568728E-02   0.0000000000E+00   0.1690724228E-01   0.1690724228E-01   0.0000000000E+00   0.0000000000E+00   0.0000000000E+00   0.0000000000E+00   0.0000000000E+00   0.0000000000E+00  -0.1091811234E+01  -0.2905379034E-10  -0.2905398524E-10  -0.1367459218E-15   0.9771732199E-16  -0.1379274834E-16
   0.1951617432E+01   0.0000000000E+00   0.1613645496E-16   0.2000000000E-01   0.0000000000E+00   0.1669865994E-16  -0.6838256836E-01   0.0000000000E+00  -0.5622049809E-18   0.0000000000E+00   0.0000000000E+00   0.0000000000E+00   0.0000000000E+00   0.0000000000E+00   0.0000000000E+00  -0.1091811235E+01  -0.2905184545E-10  -0.2905166631E-10   0.7059926813E-16   0.1985785503E-15  -0.9371480761E-16
   0.1951617432E+01   0.1011913674E+01   0.9589715658E-17   0.2000000000E-01  -0.4993568728E-02   0.1127641549E-16  -0.6838256836E-01   0.1690724228E-01  -0.1686699832E-17   0.0000000000E+00   0.0000000000E+00   0.0000000000E+00   0.0000000000E+00   0.0000000000E+00   0.0000000000E+00  -0.1091811235E+01  -0.2904701640E-10  -0.2904674862E-10  -0.1555296559E-15  -0.1947075126E-15   0.3343436198E-16
   0.1951617432E+01   0.0000000000E+00   0.1011913674E+01   0.2000000000E-01   0.0000000000E+00  -0.4993568728E-02  -0.6838256836E-01   0.0000000000E+00   0.1690724228E-01   0.0000000000E+00   0.0000000000E+00   0.0000000000E+00   0.0000000000E+00   0.0000000000E+00   0.0000000000E+00  -0.1091811235E+01  -0.2904321741E-10  -0.2904314958E-10  -0.4030410680E-16   0.2769112828E-15  -0.9007674469E-17
   0.1951617432E+01   0.1011913674E+01   0.1011913674E+01   0.2000000000E-01  -0.4993568728E-02  -0.4993568728E-02  -0.6838256836E-01   0.1690724228E-01   0.1690724228E-01   0.0000000000E+00   0.0000000000E+00   0.0000000000E+00   0.0000000000E+00   0.0000000000E+00   0.0000000000E+00  -0.1091811234E+01  -0.2906180326E-10  -0.2906164687E-10   0.1028458165E-15   0.3233859515E-16   0.2195952543E-15
     1     2     3     4     5     6     7     8
     2     9    10     3     6    11    12     7
 VARIABLES = X,Y,Z,DU1,DU2,DU3,U1,U2,U3,e11,e22,e33,e12,e13,e23,S11,S22,S33,S12,S13,S23
 ZONE, T="0.1929D+01" F=FEPOINT, I=   12 J=    2 ET=BRICK
   0.0000000000E+00   0.0000000000E+00   0.0000000000E+00   0.0000000000E+00   0.0000000000E+00   0.0000000000E+00   0.0000000000E+00   0.0000000000E+00   0.0000000000E+00   0.0000000000E+00   0.0000000000E+00   0.0000000000E+00   0.0000000000E+00   0.0000000000E+00   0.0000000000E+00  -0.1034782030E+01  -0.3289670348E-09  -0.3289669169E-09  -0.5248621567E-16   0.1413277381E-15   0.4922667249E-16
   0.9858087158E+00   0.0000000000E+00   0.3497067258E-17   0.1000000000E-01   0.0000000000E+00  -0.4152202182E-17  -0.2419128418E-01   0.0000000000E+00   0.7649269440E-17   0.0000000000E+00   0.0000000000E+00   0.0000000000E+00   0.0000000000E+00   0.0000000000E+00   0.0000000000E+00  -0.1034782030E+01  -0.3289689154E-09  -0.3289689232E-09  -0.2343905733E-15  -0.4090648757E-15  -0.3720648157E-16
   0.9858087158E+00   0.1006923178E+01   0.1703199034E-17   0.1000000000E-01  -0.4990495133E-02  -0.4530258897E-17  -0.2419128418E-01   0.1191367355E-01   0.6233457932E-17   0.0000000000E+00   0.0000000000E+00   0.0000000000E+00   0.0000000000E+00   0.0000000000E+00   0.0000000000E+00  -0.1034782030E+01  -0.3289672670E-09  -0.3289671410E-09  -0.3173545047E-15   0.4692258994E-15  -0.6606424618E-16
   0.0000000000E+00   0.1006923178E+01  -0.2497490063E-18   0.0000000000E+00  -0.4990495133E-02  -0.4344844500E-17   0.0000000000E+00   0.1191367355E-01   0.4095095493E-17   0.0000000000E+00   0.0000000000E+00   0.0000000000E+00   0.0000000000E+00   0.0000000000E+00   0.0000000000E+00  -0.1034782030E+01  -0.3289658754E-09  -0.3289655801E-09   0.8361949933E-16  -0.9981686824E-16  -0.7330509430E-17
   0.0000000000E+00   0.0000000000E+00   0.1006923178E+01   0.0000000000E+00   0.0000000000E+00  -0.4990495133E-02   0.0000000000E+00   0.0000000000E+00   0.1191367355E-01   0.0000000000E+00   0.0000000000E+00   0.0000000000E+00   0.0000000000E+00   0.0000000000E+00   0.0000000000E+00  -0.1034782030E+01  -0.3289636526E-09  -0.3289638126E-09   0.5911231350E-16  -0.9016018677E-16   0.1041813138E-15
   0.9858087158E+00   0.0000000000E+00   0.1006923178E+01   0.1000000000E-01   0.0000000000E+00  -0.4990495133E-02  -0.2419128418E-01   0.0000000000E+00   0.1191367355E-01   0.0000000000E+00   0.0000000000E+00   0.0000000000E+00   0.0000000000E+00   0.0000000000E+00   0.0000000000E+00  -0.1034782030E+01  -0.3289686220E-09  -0.3289686900E-09   0.5563387194E-16  -0.4456286050E-16   0.1068720786E-15
   0.9858087158E+00   0.1006923178E+01   0.1006923178E+01   0.1000000000E-01  -0.4990495133E-02  -0.4990495133E-02  -0.2419128418E-01   0.1191367355E-01   0.1191367355E-01   0.0000000000E+00   0.0000000000E+00   0.0000000000E+00   0.0000000000E+00   0.0000000000E+00   0.0000000000E+00  -0.1034782030E+01  -0.3289694886E-09  -0.3289694227E-09   0.1943994570E-16  -0.2182250570E-15   0.5938518681E-16
   0.0000000000E+00   0.1006923178E+01   0.1006923178E+01   0.0000000000E+00  -0.4990495133E-02  -0.4990495133E-02   0.0000000000E+00   0.1191367355E-01   0.1191367355E-01   0.0000000000E+00   0.0000000000E+00   0.0000000000E+00   0.0000000000E+00   0.0000000000E+00   0.0000000000E+00  -0.1034782030E+01  -0.3289690015E-09  -0.3289689842E-09  -0.7251010920E-16   0.2232020411E-15  -0.9332233717E-17
   0.1971617432E+01   0.0000000000E+00   0.7335407135E-17   0.2000000000E-01   0.0000000000E+00  -0.8801047823E-17  -0.4838256836E-01   0.0000000000E+00   0.1613645496E-16   0.0000000000E+00   0.0000000000E+00   0.0000000000E+00   0.0000000000E+00   0.0000000000E+00   0.0000000000E+00  -0.1034782030E+01  -0.3289703297E-09  -0.3289705369E-09   0.5204405462E-16   0.2063784315E-15  -0.1274755992E-15
   0.1971617432E+01   0.1006923178E+01   0.2264404198E-17   0.2000000000E-01  -0.4990495133E-02  -0.7325311460E-17  -0.4838256836E-01   0.1191367355E-01   0.9589715658E-17   0.0000000000E+00   0.0000000000E+00   0.0000000000E+00   0.0000000000E+00   0.0000000000E+00   0.0000000000E+00  -0.1034782030E+01  -0.3289655434E-09  -0.3289655328E-09   0.4030264693E-16  -0.9226971622E-16   0.7122184610E-16
   0.1971617432E+01   0.0000000000E+00   0.1006923178E+01   0.2000000000E-01   0.0000000000E+00  -0.4990495133E-02  -0.4838256836E-01   0.0000000000E+00   0.1191367355E-01   0.0000000000E+00   0.0000000000E+00   0.0000000000E+00   0.0000000000E+00   0.0000000000E+00   0.0000000000E+00  -0.1034782030E+01  -0.3289704763E-09  -0.3289706534E-09   0.1333178804E-15  -0.4042138917E-15  -0.1294656409E-15
   0.1971617432E+01   0.1006923178E+01   0.1006923178E+01   0.2000000000E-01  -0.4990495133E-02  -0.4990495133E-02  -0.4838256836E-01   0.1191367355E-01   0.1191367355E-01   0.0000000000E+00   0.0000000000E+00   0.0000000000E+00   0.0000000000E+00   0.0000000000E+00   0.0000000000E+00  -0.1034782030E+01  -0.3289644326E-09  -0.3289643919E-09  -0.1176652696E-15   0.3487719196E-15  -0.8363039768E-16
     1     2     3     4     5     6     7     8
     2     9    10     3     6    11    12     7
 VARIABLES = X,Y,Z,DU1,DU2,DU3,U1,U2,U3,e11,e22,e33,e12,e13,e23,S11,S22,S33,S12,S13,S23
 ZONE, T="0.1979D+01" F=FEPOINT, I=   12 J=    2 ET=BRICK
   0.0000000000E+00   0.0000000000E+00   0.0000000000E+00   0.0000000000E+00   0.0000000000E+00   0.0000000000E+00   0.0000000000E+00   0.0000000000E+00   0.0000000000E+00   0.0000000000E+00   0.0000000000E+00   0.0000000000E+00   0.0000000000E+00   0.0000000000E+00   0.0000000000E+00  -0.7585656864E+00   0.2683751088E-14   0.2664207694E-14   0.2224522135E-16   0.2895138118E-15   0.2538071012E-15
   0.9958087158E+00   0.0000000000E+00   0.2839647329E-17   0.1000000000E-01   0.0000000000E+00  -0.6574199289E-18  -0.1419128418E-01   0.0000000000E+00   0.3497067258E-17   0.0000000000E+00   0.0000000000E+00   0.0000000000E+00   0.0000000000E+00   0.0000000000E+00   0.0000000000E+00  -0.7585656864E+00   0.1477648675E-14   0.1399467626E-14  -0.3302066700E-15  -0.4347552183E-15   0.5913710206E-17
   0.9958087158E+00   0.1001969214E+01   0.3388944849E-17   0.1000000000E-01  -0.4953963943E-02   0.1685745815E-17  -0.1419128418E-01   0.6923178418E-02   0.1703199034E-17   0.0000000000E+00   0.0000000000E+00   0.0000000000E+00   0.0000000000E+00   0.0000000000E+00   0.0000000000E+00  -0.7585656863E+00  -0.2045431315E-14  -0.1938628156E-14  -0.1743062477E-15   0.1437441912E-15  -0.7285347495E-16
   0.0000000000E+00   0.1001969214E+01   0.2607103593E-17   0.0000000000E+00  -0.4953963943E-02   0.2856852600E-17   0.0000000000E+00   0.6923178418E-02  -0.2497490063E-18   0.0000000000E+00   0.0000000000E+00   0.0000000000E+00   0.0000000000E+00   0.0000000000E+00   0.0000000000E+00  -0.7585656863E+00  -0.1105332391E-14  -0.1158733960E-14  -0.3613143345E-16  -0.1047942119E-15  -0.1593036370E-16
   0.0000000000E+00   0.0000000000E+00   0.1001969214E+01   0.0000000000E+00   0.0000000000E+00  -0.4953963943E-02   0.0000000000E+00   0.0000000000E+00   0.6923178418E-02   0.0000000000E+00   0.0000000000E+00   0.0000000000E+00   0.0000000000E+00   0.0000000000E+00   0.0000000000E+00  -0.7585656863E+00  -0.3726479784E-14  -0.3585833899E-14  -0.5578236962E-16  -0.9247304389E-16  -0.1792710887E-15
   0.9958087158E+00   0.0000000000E+00   0.1001969214E+01   0.1000000000E-01   0.0000000000E+00  -0.4953963943E-02  -0.1419128418E-01   0.0000000000E+00   0.6923178418E-02   0.0000000000E+00   0.0000000000E+00   0.0000000000E+00   0.0000000000E+00   0.0000000000E+00   0.0000000000E+00  -0.7585656863E+00  -0.1470270759E-14  -0.1431180804E-14   0.2803019944E-15  -0.4056247387E-15   0.2027920711E-15
   0.9958087158E+00   0.1001969214E+01   0.1001969214E+01   0.1000000000E-01  -0.4953963943E-02  -0.4953963943E-02  -0.1419128418E-01   0.6923178418E-02   0.6923178418E-02   0.0000000000E+00   0.0000000000E+00   0.0000000000E+00   0.0000000000E+00   0.0000000000E+00   0.0000000000E+00  -0.7585656862E+00  -0.2522645047E-14  -0.2298585765E-14   0.1065789627E-15   0.2649775008E-15  -0.2191257942E-16
   0.0000000000E+00   0.1001969214E+01   0.1001969214E+01   0.0000000000E+00  -0.4953963943E-02  -0.4953963943E-02   0.0000000000E+00   0.6923178418E-02   0.6923178418E-02   0.0000000000E+00   0.0000000000E+00   0.0000000000E+00   0.0000000000E+00   0.0000000000E+00   0.0000000000E+00  -0.7585656862E+00  -0.1146364295E-14  -0.1039569145E-14  -0.6988113583E-16   0.2370338541E-15  -0.1789255684E-15
   0.1991617432E+01   0.0000000000E+00   0.4812876071E-17   0.2000000000E-01   0.0000000000E+00  -0.2522531064E-17  -0.2838256836E-01   0.0000000000E+00   0.7335407135E-17   0.0000000000E+00   0.0000000000E+00   0.0000000000E+00   0.0000000000E+00   0.0000000000E+00   0.0000000000E+00  -0.7585656864E+00   0.4748314426E-14   0.4106165028E-14  -0.2242057567E-15   0.5447173675E-16  -0.6647635019E-16
   0.1991617432E+01   0.1001969214E+01   0.4167624382E-17   0.2000000000E-01  -0.4953963943E-02   0.1903220184E-17  -0.2838256836E-01   0.6923178418E-02   0.2264404198E-17   0.0000000000E+00   0.0000000000E+00   0.0000000000E+00   0.0000000000E+00   0.0000000000E+00   0.0000000000E+00  -0.7585656863E+00   0.1450470034E-14   0.1212036150E-14  -0.1735565989E-15  -0.1731761014E-15  -0.3763125652E-15
   0.1991617432E+01   0.0000000000E+00   0.1001969214E+01   0.2000000000E-01   0.0000000000E+00  -0.4953963943E-02  -0.2838256836E-01   0.0000000000E+00   0.6923178418E-02   0.0000000000E+00   0.0000000000E+00   0.0000000000E+00   0.0000000000E+00   0.0000000000E+00   0.0000000000E+00  -0.7585656863E+00  -0.5246844896E-15  -0.4517475306E-15  -0.4570074054E-16  -0.2429200985E-15   0.1697983288E-15
   0.1991617432E+01   0.1001969214E+01   0.1001969214E+01   0.2000000000E-01  -0.4953963943E-02  -0.4953963943E-02  -0.2838256836E-01   0.6923178418E-02   0.6923178418E-02   0.0000000000E+00   0.0000000000E+00   0.0000000000E+00   0.0000000000E+00   0.0000000000E+00   0.0000000000E+00  -0.7585656862E+00  -0.5057785482E-14  -0.4581029372E-14   0.3159544735E-15   0.2298049552E-15  -0.2684356085E-15
     1     2     3     4     5     6     7     8
     2     9    10     3     6    11    12     7
 VARIABLES = X,Y,Z,DU1,DU2,DU3,U1,U2,U3,e11,e22,e33,e12,e13,e23,S11,S22,S33,S12,S13,S23
 ZONE, T="0.2029D+01" F=FEPOINT, I=   12 J=    2 ET=BRICK
   0.0000000000E+00   0.0000000000E+00   0.0000000000E+00   0.0000000000E+00   0.0000000000E+00   0.0000000000E+00   0.0000000000E+00   0.0000000000E+00   0.0000000000E+00   0.0000000000E+00   0.0000000000E+00   0.0000000000E+00   0.0000000000E+00   0.0000000000E+00   0.0000000000E+00   0.8663644640E+00   0.5869026429E-12   0.5869979251E-12  -0.3523988329E-16   0.2767433717E-16  -0.8047184569E-16
   0.1005808716E+01   0.0000000000E+00  -0.4772625361E-18   0.1000000000E-01   0.0000000000E+00  -0.3316909865E-17  -0.4191284180E-02   0.0000000000E+00   0.2839647329E-17   0.0000000000E+00   0.0000000000E+00   0.0000000000E+00   0.0000000000E+00   0.0000000000E+00   0.0000000000E+00   0.8663644640E+00   0.5909953815E-12   0.5910224114E-12   0.1496389401E-15   0.2882225045E-16  -0.7998079880E-16
   0.1005808716E+01   0.9972400362E+00  -0.1755852880E-17   0.1000000000E-01  -0.4729178309E-02  -0.5144797729E-17  -0.4191284180E-02   0.1969214476E-02   0.3388944849E-17   0.0000000000E+00   0.0000000000E+00   0.0000000000E+00   0.0000000000E+00   0.0000000000E+00   0.0000000000E+00   0.8663644639E+00   0.5877158894E-12   0.5876873059E-12   0.4573837430E-16  -0.1007366741E-15   0.1248180545E-15
   0.0000000000E+00   0.9972400362E+00  -0.2171266224E-17   0.0000000000E+00  -0.4729178309E-02  -0.4778369817E-17   0.0000000000E+00   0.1969214476E-02   0.2607103593E-17   0.0000000000E+00   0.0000000000E+00   0.0000000000E+00   0.0000000000E+00   0.0000000000E+00   0.0000000000E+00   0.8663644639E+00   0.5887906875E-12   0.5889378551E-12  -0.3987051552E-16   0.2668148573E-16  -0.8869932972E-16
   0.0000000000E+00   0.0000000000E+00   0.9972400362E+00   0.0000000000E+00   0.0000000000E+00  -0.4729178309E-02   0.0000000000E+00   0.0000000000E+00   0.1969214476E-02   0.0000000000E+00   0.0000000000E+00   0.0000000000E+00   0.0000000000E+00   0.0000000000E+00   0.0000000000E+00   0.8663644639E+00   0.5919916987E-12   0.5918105738E-12   0.1558821115E-16   0.1333886923E-16   0.2023068140E-16
   0.1005808716E+01   0.0000000000E+00   0.9972400362E+00   0.1000000000E-01   0.0000000000E+00  -0.4729178309E-02  -0.4191284180E-02   0.0000000000E+00   0.1969214476E-02   0.0000000000E+00   0.0000000000E+00   0.0000000000E+00   0.0000000000E+00   0.0000000000E+00   0.0000000000E+00   0.8663644639E+00   0.5915676084E-12   0.5915603422E-12  -0.2058111372E-15   0.1752906342E-15  -0.2486777996E-15
   0.1005808716E+01   0.9972400362E+00   0.9972400362E+00   0.1000000000E-01  -0.4729178309E-02  -0.4729178309E-02  -0.4191284180E-02   0.1969214476E-02   0.1969214476E-02   0.0000000000E+00   0.0000000000E+00   0.0000000000E+00   0.0000000000E+00   0.0000000000E+00   0.0000000000E+00   0.8663644638E+00   0.5908244023E-12   0.5907615525E-12  -0.1592499385E-15  -0.1551735124E-15   0.8931414555E-16
   0.0000000000E+00   0.9972400362E+00   0.9972400362E+00   0.0000000000E+00  -0.4729178309E-02  -0.4729178309E-02   0.0000000000E+00   0.1969214476E-02   0.1969214476E-02   0.0000000000E+00   0.0000000000E+00   0.0000000000E+00   0.0000000000E+00   0.0000000000E+00   0.0000000000E+00   0.8663644638E+00   0.5925633738E-12   0.5924341193E-12   0.3368745015E-16  -0.6770475074E-16   0.4853348548E-16
   0.2011617432E+01   0.0000000000E+00  -0.2366812968E-17   0.2000000000E-01   0.0000000000E+00  -0.7179689040E-17  -0.8382568359E-02   0.0000000000E+00   0.4812876071E-17   0.0000000000E+00   0.0000000000E+00   0.0000000000E+00   0.0000000000E+00   0.0000000000E+00   0.0000000000E+00   0.8663644640E+00   0.5909263631E-12   0.5907812481E-12  -0.9323472061E-16  -0.2211647451E-15  -0.1388568949E-16
   0.2011617432E+01   0.9972400362E+00  -0.2886645911E-17   0.2000000000E-01  -0.4729178309E-02  -0.7054270293E-17  -0.8382568359E-02   0.1969214476E-02   0.4167624382E-17   0.0000000000E+00   0.0000000000E+00   0.0000000000E+00   0.0000000000E+00   0.0000000000E+00   0.0000000000E+00   0.8663644638E+00   0.5874203383E-12   0.5876384423E-12   0.1807617856E-16   0.6698119199E-16   0.4342601220E-16
   0.2011617432E+01   0.0000000000E+00   0.9972400362E+00   0.2000000000E-01   0.0000000000E+00  -0.4729178309E-02  -0.8382568359E-02   0.0000000000E+00   0.1969214476E-02   0.0000000000E+00   0.0000000000E+00   0.0000000000E+00   0.0000000000E+00   0.0000000000E+00   0.0000000000E+00   0.8663644638E+00   0.5911272590E-12   0.5907956401E-12   0.4325451755E-16   0.2212966725E-15   0.1877918499E-15
   0.2011617432E+01   0.9972400362E+00   0.9972400362E+00   0.2000000000E-01  -0.4729178309E-02  -0.4729178309E-02  -0.8382568359E-02   0.1969214476E-02   0.1969214476E-02   0.0000000000E+00   0.0000000000E+00   0.0000000000E+00   0.0000000000E+00   0.0000000000E+00   0.0000000000E+00   0.8663644637E+00   0.5940103166E-12   0.5940417094E-12  -0.1119319633E-15  -0.1505239194E-15   0.1189522332E-15
     1     2     3     4     5     6     7     8
     2     9    10     3     6    11    12     7
 VARIABLES = X,Y,Z,DU1,DU2,DU3,U1,U2,U3,e11,e22,e33,e12,e13,e23,S11,S22,S33,S12,S13,S23
 ZONE, T="0.2079D+01" F=FEPOINT, I=   12 J=    2 ET=BRICK
   0.0000000000E+00   0.0000000000E+00   0.0000000000E+00   0.0000000000E+00   0.0000000000E+00   0.0000000000E+00   0.0000000000E+00   0.0000000000E+00   0.0000000000E+00   0.0000000000E+00   0.0000000000E+00   0.0000000000E+00   0.0000000000E+00   0.0000000000E+00   0.0000000000E+00   0.1046090285E+01  -0.7009409282E-15  -0.6666163353E-15   0.7179281683E-18   0.9774663229E-16  -0.1725718212E-16
   0.1015808716E+01   0.0000000000E+00   0.8425939801E-18   0.1000000000E-01   0.0000000000E+00   0.1319856516E-17   0.5808715820E-02   0.0000000000E+00  -0.4772625361E-18   0.0000000000E+00   0.0000000000E+00   0.0000000000E+00   0.0000000000E+00   0.0000000000E+00   0.0000000000E+00   0.1046090285E+01  -0.1039684393E-14  -0.9992509211E-15   0.1951002677E-15   0.8155412583E-16   0.3867995647E-17
   0.1015808716E+01   0.9922699905E+00   0.8075999326E-19   0.1000000000E-01  -0.4970045697E-02   0.1836612873E-17   0.5808715820E-02  -0.2759963833E-02  -0.1755852880E-17   0.0000000000E+00   0.0000000000E+00   0.0000000000E+00   0.0000000000E+00   0.0000000000E+00   0.0000000000E+00   0.1046090285E+01   0.4640699922E-14   0.4489800129E-14   0.1855786952E-15  -0.9770266663E-16   0.1845907463E-16
   0.0000000000E+00   0.9922699905E+00   0.1747012116E-19   0.0000000000E+00  -0.4970045697E-02   0.2188736345E-17   0.0000000000E+00  -0.2759963833E-02  -0.2171266224E-17   0.0000000000E+00   0.0000000000E+00   0.0000000000E+00   0.0000000000E+00   0.0000000000E+00   0.0000000000E+00   0.1046090285E+01   0.7819635578E-14   0.7691534437E-14  -0.7346598038E-16  -0.2871460567E-16   0.1709800497E-16
   0.0000000000E+00   0.0000000000E+00   0.9922699905E+00   0.0000000000E+00   0.0000000000E+00  -0.4970045697E-02   0.0000000000E+00   0.0000000000E+00  -0.2759963833E-02   0.0000000000E+00   0.0000000000E+00   0.0000000000E+00   0.0000000000E+00   0.0000000000E+00   0.0000000000E+00   0.1046090285E+01   0.1636071037E-14   0.1629270336E-14  -0.1013852261E-16  -0.1042224261E-15  -0.4160370028E-16
   0.1015808716E+01   0.0000000000E+00   0.9922699905E+00   0.1000000000E-01   0.0000000000E+00  -0.4970045697E-02   0.5808715820E-02   0.0000000000E+00  -0.2759963833E-02   0.0000000000E+00   0.0000000000E+00   0.0000000000E+00   0.0000000000E+00   0.0000000000E+00   0.0000000000E+00   0.1046090285E+01   0.8849137007E-15   0.8919676305E-15  -0.1332950369E-15   0.1888446285E-15  -0.5128972533E-16
   0.1015808716E+01   0.9922699905E+00   0.9922699905E+00   0.1000000000E-01  -0.4970045697E-02  -0.4970045697E-02   0.5808715820E-02  -0.2759963833E-02  -0.2759963833E-02   0.0000000000E+00   0.0000000000E+00   0.0000000000E+00   0.0000000000E+00   0.0000000000E+00   0.0000000000E+00   0.1046090285E+01  -0.3843041296E-14  -0.3869366923E-14  -0.1744392892E-15  -0.2104254560E-15  -0.2406791514E-16
   0.0000000000E+00   0.9922699905E+00   0.9922699905E+00   0.0000000000E+00  -0.4970045697E-02  -0.4970045697E-02   0.0000000000E+00  -0.2759963833E-02  -0.2759963833E-02   0.0000000000E+00   0.0000000000E+00   0.0000000000E+00   0.0000000000E+00   0.0000000000E+00   0.0000000000E+00   0.1046090285E+01  -0.2516917681E-15  -0.2263112005E-15   0.1983907414E-16   0.4627162801E-16  -0.3534768559E-16
   0.2031617432E+01   0.0000000000E+00  -0.2199188065E-17   0.2000000000E-01   0.0000000000E+00   0.1676249028E-18   0.1161743164E-01   0.0000000000E+00  -0.2366812968E-17   0.0000000000E+00   0.0000000000E+00   0.0000000000E+00   0.0000000000E+00   0.0000000000E+00   0.0000000000E+00   0.1046090285E+01  -0.2478198198E-14  -0.2498414932E-14  -0.1650484631E-16  -0.8160828692E-16   0.3046277333E-16
   0.2031617432E+01   0.9922699905E+00   0.5777607856E-18   0.2000000000E-01  -0.4970045697E-02   0.3464406697E-17   0.1161743164E-01  -0.2759963833E-02  -0.2886645911E-17   0.0000000000E+00   0.0000000000E+00   0.0000000000E+00   0.0000000000E+00   0.0000000000E+00   0.0000000000E+00   0.1046090285E+01   0.2964078754E-14   0.3039528639E-14  -0.1682347704E-16  -0.6772999826E-16   0.1137917725E-15
   0.2031617432E+01   0.0000000000E+00   0.9922699905E+00   0.2000000000E-01   0.0000000000E+00  -0.4970045697E-02   0.1161743164E-01   0.0000000000E+00  -0.2759963833E-02   0.0000000000E+00   0.0000000000E+00   0.0000000000E+00   0.0000000000E+00   0.0000000000E+00   0.0000000000E+00   0.1046090285E+01   0.1636070852E-14   0.1674867454E-14   0.1930591204E-16   0.1002441116E-15  -0.2663799954E-16
   0.2031617432E+01   0.9922699905E+00   0.9922699905E+00   0.2000000000E-01  -0.4970045697E-02  -0.4970045697E-02   0.1161743164E-01  -0.2759963833E-02  -0.2759963833E-02   0.0000000000E+00   0.0000000000E+00   0.0000000000E+00   0.0000000000E+00   0.0000000000E+00   0.0000000000E+00   0.1046090285E+01  -0.3329991507E-14  -0.3474782415E-14   0.4561537730E-16   0.8878127184E-16   0.1616375016E-16
     1     2     3     4     5     6     7     8
     2     9    10     3     6    11    12     7
 VARIABLES = X,Y,Z,DU1,DU2,DU3,U1,U2,U3,e11,e22,e33,e12,e13,e23,S11,S22,S33,S12,S13,S23
 ZONE, T="0.2129D+01" F=FEPOINT, I=   12 J=    2 ET=BRICK
   0.0000000000E+00   0.0000000000E+00   0.0000000000E+00   0.0000000000E+00   0.0000000000E+00   0.0000000000E+00   0.0000000000E+00   0.0000000000E+00   0.0000000000E+00   0.0000000000E+00   0.0000000000E+00   0.0000000000E+00   0.0000000000E+00   0.0000000000E+00   0.0000000000E+00   0.1098931661E+01   0.4969131865E-08   0.4969132054E-08  -0.1477058670E-16   0.5610934137E-16  -0.2841686934E-16
   0.1025808716E+01   0.0000000000E+00   0.6933338879E-18   0.1000000000E-01   0.0000000000E+00  -0.1492600922E-18   0.1580871582E-01   0.0000000000E+00   0.8425939801E-18   0.0000000000E+00   0.0000000000E+00   0.0000000000E+00   0.0000000000E+00   0.0000000000E+00   0.0000000000E+00   0.1098931661E+01   0.4969144536E-08   0.4969144661E-08   0.1366791886E-15   0.1187411587E-15  -0.2438099735E-16
   0.1025808716E+01   0.9872787974E+00  -0.1050783395E-17   0.1000000000E-01  -0.4991193102E-02  -0.1131543388E-17   0.1580871582E-01  -0.7730009530E-02   0.8075999326E-19   0.0000000000E+00   0.0000000000E+00   0.0000000000E+00   0.0000000000E+00   0.0000000000E+00   0.0000000000E+00   0.1098931660E+01   0.4969145926E-08   0.4969145939E-08   0.1481650814E-15  -0.1014325549E-15   0.3948285307E-16
   0.0000000000E+00   0.9872787974E+00  -0.1724301602E-17   0.0000000000E+00  -0.4991193102E-02  -0.1741771723E-17   0.0000000000E+00  -0.7730009530E-02   0.1747012116E-19   0.0000000000E+00   0.0000000000E+00   0.0000000000E+00   0.0000000000E+00   0.0000000000E+00   0.0000000000E+00   0.1098931660E+01   0.4969151162E-08   0.4969151177E-08   0.4111479720E-17  -0.1409823804E-16   0.7591939641E-16
   0.0000000000E+00   0.0000000000E+00   0.9872787974E+00   0.0000000000E+00   0.0000000000E+00  -0.4991193102E-02   0.0000000000E+00   0.0000000000E+00  -0.7730009530E-02   0.0000000000E+00   0.0000000000E+00   0.0000000000E+00   0.0000000000E+00   0.0000000000E+00   0.0000000000E+00   0.1098931660E+01   0.4969162524E-08   0.4969162520E-08   0.1772211785E-16  -0.5837475643E-16  -0.9912630337E-16
   0.1025808716E+01   0.0000000000E+00   0.9872787974E+00   0.1000000000E-01   0.0000000000E+00  -0.4991193102E-02   0.1580871582E-01   0.0000000000E+00  -0.7730009530E-02   0.0000000000E+00   0.0000000000E+00   0.0000000000E+00   0.0000000000E+00   0.0000000000E+00   0.0000000000E+00   0.1098931660E+01   0.4969157352E-08   0.4969157349E-08  -0.1309632981E-15   0.1290365797E-15  -0.5464799007E-16
   0.1025808716E+01   0.9872787974E+00   0.9872787974E+00   0.1000000000E-01  -0.4991193102E-02  -0.4991193102E-02   0.1580871582E-01  -0.7730009530E-02  -0.7730009530E-02   0.0000000000E+00   0.0000000000E+00   0.0000000000E+00   0.0000000000E+00   0.0000000000E+00   0.0000000000E+00   0.1098931660E+01   0.4969148260E-08   0.4969148144E-08  -0.1316563611E-15  -0.1219989194E-15   0.8109788254E-16
   0.0000000000E+00   0.9872787974E+00   0.9872787974E+00   0.0000000000E+00  -0.4991193102E-02  -0.4991193102E-02   0.0000000000E+00  -0.7730009530E-02  -0.7730009530E-02   0.0000000000E+00   0.0000000000E+00   0.0000000000E+00   0.0000000000E+00   0.0000000000E+00   0.0000000000E+00   0.1098931660E+01   0.4969140225E-08   0.4969140047E-08   0.1907857647E-16   0.6413154614E-16  -0.3729476609E-16
   0.2051617432E+01   0.0000000000E+00  -0.3780124086E-17   0.2000000000E-01   0.0000000000E+00  -0.1580936021E-17   0.3161743164E-01   0.0000000000E+00  -0.2199188065E-17   0.0000000000E+00   0.0000000000E+00   0.0000000000E+00   0.0000000000E+00   0.0000000000E+00   0.0000000000E+00   0.1098931661E+01   0.4969158305E-08   0.4969158398E-08   0.2658361873E-17  -0.3496871196E-16   0.1503542722E-16
   0.2051617432E+01   0.9872787974E+00  -0.2147112939E-17   0.2000000000E-01  -0.4991193102E-02  -0.2724873725E-17   0.3161743164E-01  -0.7730009530E-02   0.5777607856E-18   0.0000000000E+00   0.0000000000E+00   0.0000000000E+00   0.0000000000E+00   0.0000000000E+00   0.0000000000E+00   0.1098931660E+01   0.4969136586E-08   0.4969136479E-08   0.4929852046E-16   0.6663353682E-16   0.2216394634E-16
   0.2051617432E+01   0.0000000000E+00   0.9872787974E+00   0.2000000000E-01   0.0000000000E+00  -0.4991193102E-02   0.3161743164E-01   0.0000000000E+00  -0.7730009530E-02   0.0000000000E+00   0.0000000000E+00   0.0000000000E+00   0.0000000000E+00   0.0000000000E+00   0.0000000000E+00   0.1098931660E+01   0.4969153279E-08   0.4969153308E-08   0.1549278726E-16  -0.1259796573E-16   0.3600471475E-16
   0.2051617432E+01   0.9872787974E+00   0.9872787974E+00   0.2000000000E-01  -0.4991193102E-02  -0.4991193102E-02   0.3161743164E-01  -0.7730009530E-02  -0.7730009530E-02   0.0000000000E+00   0.0000000000E+00   0.0000000000E+00   0.0000000000E+00   0.0000000000E+00   0.0000000000E+00   0.1098931660E+01   0.4969152191E-08   0.4969152020E-08  -0.6922716910E-16   0.7157137354E-16  -0.5580685074E-16
     1     2     3     4     5     6     7     8
     2     9    10     3     6    11    12     7
 VARIABLES = X,Y,Z,DU1,DU2,DU3,U1,U2,U3,e11,e22,e33,e12,e13,e23,S11,S22,S33,S12,S13,S23
 ZONE, T="0.2179D+01" F=FEPOINT, I=   12 J=    2 ET=BRICK
   0.0000000000E+00   0.0000000000E+00   0.0000000000E+00   0.0000000000E+00   0.0000000000E+00   0.0000000000E+00   0.0000000000E+00   0.0000000000E+00   0.0000000000E+00   0.0000000000E+00   0.0000000000E+00   0.0000000000E+00   0.0000000000E+00   0.0000000000E+00   0.0000000000E+00   0.1135652777E+01   0.4292387532E-10   0.4292400036E-10  -0.3077240627E-17   0.2362596147E-16   0.3567475264E-16
   0.1035808716E+01   0.0000000000E+00   0.1656781749E-17   0.1000000000E-01   0.0000000000E+00   0.9634478615E-18   0.2580871582E-01   0.0000000000E+00   0.6933338879E-18   0.0000000000E+00   0.0000000000E+00   0.0000000000E+00   0.0000000000E+00   0.0000000000E+00   0.0000000000E+00   0.1135652777E+01   0.4292282208E-10   0.4292295452E-10  -0.8753615392E-16  -0.1168933735E-15  -0.3110547048E-16
   0.1035808716E+01   0.9822849176E+00   0.8258610238E-18   0.1000000000E-01  -0.4993879816E-02   0.1876644419E-17   0.2580871582E-01  -0.1272120263E-01  -0.1050783395E-17   0.0000000000E+00   0.0000000000E+00   0.0000000000E+00   0.0000000000E+00   0.0000000000E+00   0.0000000000E+00   0.1135652777E+01   0.4291568971E-10   0.4291567131E-10  -0.4948797063E-16   0.8514843653E-16   0.1407248363E-15
   0.0000000000E+00   0.9822849176E+00   0.9356024162E-18   0.0000000000E+00  -0.4993879816E-02   0.2659904018E-17   0.0000000000E+00  -0.1272120263E-01  -0.1724301602E-17   0.0000000000E+00   0.0000000000E+00   0.0000000000E+00   0.0000000000E+00   0.0000000000E+00   0.0000000000E+00   0.1135652777E+01   0.4291175898E-10   0.4291176818E-10  -0.3928627638E-16  -0.3568852552E-17  -0.1370228661E-16
   0.0000000000E+00   0.0000000000E+00   0.9822849176E+00   0.0000000000E+00   0.0000000000E+00  -0.4993879816E-02   0.0000000000E+00   0.0000000000E+00  -0.1272120263E-01   0.0000000000E+00   0.0000000000E+00   0.0000000000E+00   0.0000000000E+00   0.0000000000E+00   0.0000000000E+00   0.1135652777E+01   0.4292322761E-10   0.4292322515E-10   0.3174120981E-17   0.4717645614E-16  -0.1028202816E-16
   0.1035808716E+01   0.0000000000E+00   0.9822849176E+00   0.1000000000E-01   0.0000000000E+00  -0.4993879816E-02   0.2580871582E-01   0.0000000000E+00  -0.1272120263E-01   0.0000000000E+00   0.0000000000E+00   0.0000000000E+00   0.0000000000E+00   0.0000000000E+00   0.0000000000E+00   0.1135652777E+01   0.4292880800E-10   0.4292881293E-10   0.9963106572E-16  -0.1554318211E-15  -0.6364553187E-16
   0.1035808716E+01   0.9822849176E+00   0.9822849176E+00   0.1000000000E-01  -0.4993879816E-02  -0.4993879816E-02   0.2580871582E-01  -0.1272120263E-01  -0.1272120263E-01   0.0000000000E+00   0.0000000000E+00   0.0000000000E+00   0.0000000000E+00   0.0000000000E+00   0.0000000000E+00   0.1135652777E+01   0.4292178606E-10   0.4292164014E-10   0.3209426410E-16   0.1421695645E-15  -0.5633510414E-16
   0.0000000000E+00   0.9822849176E+00   0.9822849176E+00   0.0000000000E+00  -0.4993879816E-02  -0.4993879816E-02   0.0000000000E+00  -0.1272120263E-01  -0.1272120263E-01   0.0000000000E+00   0.0000000000E+00   0.0000000000E+00   0.0000000000E+00   0.0000000000E+00   0.0000000000E+00   0.1135652777E+01   0.4294261236E-10   0.4294249405E-10   0.4385292002E-16  -0.6805715868E-16   0.9586369694E-16
   0.2071617432E+01   0.0000000000E+00  -0.3008915846E-18   0.2000000000E-01   0.0000000000E+00   0.3479232501E-17   0.5161743164E-01   0.0000000000E+00  -0.3780124086E-17   0.0000000000E+00   0.0000000000E+00   0.0000000000E+00   0.0000000000E+00   0.0000000000E+00   0.0000000000E+00   0.1135652777E+01   0.4291956930E-10   0.4291966247E-10  -0.1010533295E-16   0.8810437420E-16   0.1114918580E-16
   0.2071617432E+01   0.9822849176E+00  -0.1812464622E-17   0.2000000000E-01  -0.4993879816E-02   0.3346483168E-18   0.5161743164E-01  -0.1272120263E-01  -0.2147112939E-17   0.0000000000E+00   0.0000000000E+00   0.0000000000E+00   0.0000000000E+00   0.0000000000E+00   0.0000000000E+00   0.1135652777E+01   0.4292782924E-10   0.4292795741E-10   0.1424233041E-15  -0.9860868244E-16  -0.1189516237E-15
   0.2071617432E+01   0.0000000000E+00   0.9822849176E+00   0.2000000000E-01   0.0000000000E+00  -0.4993879816E-02   0.5161743164E-01   0.0000000000E+00  -0.1272120263E-01   0.0000000000E+00   0.0000000000E+00   0.0000000000E+00   0.0000000000E+00   0.0000000000E+00   0.0000000000E+00   0.1135652777E+01   0.4293218885E-10   0.4293215450E-10   0.4278468553E-16  -0.1284929663E-16  -0.7765984040E-17
   0.2071617432E+01   0.9822849176E+00   0.9822849176E+00   0.2000000000E-01  -0.4993879816E-02  -0.4993879816E-02   0.5161743164E-01  -0.1272120263E-01  -0.1272120263E-01   0.0000000000E+00   0.0000000000E+00   0.0000000000E+00   0.0000000000E+00   0.0000000000E+00   0.0000000000E+00   0.1135652777E+01   0.4290916856E-10   0.4290916922E-10  -0.2998924081E-16  -0.2499646998E-16   0.9776178550E-16
     1     2     3     4     5     6     7     8
     2     9    10     3     6    11    12     7
 VARIABLES = X,Y,Z,DU1,DU2,DU3,U1,U2,U3,e11,e22,e33,e12,e13,e23,S11,S22,S33,S12,S13,S23
 ZONE, T="0.2229D+01" F=FEPOINT, I=   12 J=    2 ET=BRICK
   0.0000000000E+00   0.0000000000E+00   0.0000000000E+00   0.0000000000E+00   0.0000000000E+00   0.0000000000E+00   0.0000000000E+00   0.0000000000E+00   0.0000000000E+00   0.0000000000E+00   0.0000000000E+00   0.0000000000E+00   0.0000000000E+00   0.0000000000E+00   0.0000000000E+00   0.1164051025E+01   0.7142053791E-11   0.7142003617E-11  -0.2395873470E-16  -0.7397919170E-16  -0.6136650538E-16
   0.1045808716E+01   0.0000000000E+00  -0.4566590498E-17   0.1000000000E-01   0.0000000000E+00  -0.6223372247E-17   0.3580871582E-01   0.0000000000E+00   0.1656781749E-17   0.0000000000E+00   0.0000000000E+00   0.0000000000E+00   0.0000000000E+00   0.0000000000E+00   0.0000000000E+00   0.1164051025E+01   0.7159818559E-11   0.7159844096E-11   0.1080433465E-15  -0.7374125142E-17  -0.2771779942E-17
   0.1045808716E+01   0.9772896506E+00  -0.3229676607E-17   0.1000000000E-01  -0.4995266959E-02  -0.4055537631E-17   0.3580871582E-01  -0.1771508245E-01   0.8258610238E-18   0.0000000000E+00   0.0000000000E+00   0.0000000000E+00   0.0000000000E+00   0.0000000000E+00   0.0000000000E+00   0.1164051025E+01   0.7153879046E-11   0.7153765068E-11   0.1052958038E-15   0.5110827988E-17  -0.3956451089E-16
   0.0000000000E+00   0.9772896506E+00  -0.1064067329E-16   0.0000000000E+00  -0.4995266959E-02  -0.1157627571E-16   0.0000000000E+00  -0.1771508245E-01   0.9356024162E-18   0.0000000000E+00   0.0000000000E+00   0.0000000000E+00   0.0000000000E+00   0.0000000000E+00   0.0000000000E+00   0.1164051025E+01   0.7158610379E-11   0.7158750795E-11   0.1247096689E-15   0.8132732934E-16  -0.3404036677E-16
   0.0000000000E+00   0.0000000000E+00   0.9772896506E+00   0.0000000000E+00   0.0000000000E+00  -0.4995266959E-02   0.0000000000E+00   0.0000000000E+00  -0.1771508245E-01   0.0000000000E+00   0.0000000000E+00   0.0000000000E+00   0.0000000000E+00   0.0000000000E+00   0.0000000000E+00   0.1164051025E+01   0.7162876212E-11   0.7162517368E-11   0.1419416058E-17   0.8981937153E-17  -0.2232142281E-16
   0.1045808716E+01   0.0000000000E+00   0.9772896506E+00   0.1000000000E-01   0.0000000000E+00  -0.4995266959E-02   0.3580871582E-01   0.0000000000E+00  -0.1771508245E-01   0.0000000000E+00   0.0000000000E+00   0.0000000000E+00   0.0000000000E+00   0.0000000000E+00   0.0000000000E+00   0.1164051025E+01   0.7163922969E-11   0.7164018211E-11   0.3164794184E-16   0.6575870589E-16   0.2445810131E-16
   0.1045808716E+01   0.9772896506E+00   0.9772896506E+00   0.1000000000E-01  -0.4995266959E-02  -0.4995266959E-02   0.3580871582E-01  -0.1771508245E-01  -0.1771508245E-01   0.0000000000E+00   0.0000000000E+00   0.0000000000E+00   0.0000000000E+00   0.0000000000E+00   0.0000000000E+00   0.1164051025E+01   0.7147575102E-11   0.7147530929E-11   0.4896802619E-17  -0.1418264961E-15  -0.3248835614E-16
   0.0000000000E+00   0.9772896506E+00   0.9772896506E+00   0.0000000000E+00  -0.4995266959E-02  -0.4995266959E-02   0.0000000000E+00  -0.1771508245E-01  -0.1771508245E-01   0.0000000000E+00   0.0000000000E+00   0.0000000000E+00   0.0000000000E+00   0.0000000000E+00   0.0000000000E+00   0.1164051025E+01   0.7153412055E-11   0.7153243585E-11  -0.8635371408E-16   0.4873779859E-16   0.1351411062E-15
   0.2091617432E+01   0.0000000000E+00  -0.7229788201E-17   0.2000000000E-01   0.0000000000E+00  -0.6928896617E-17   0.7161743164E-01   0.0000000000E+00  -0.3008915846E-18   0.0000000000E+00   0.0000000000E+00   0.0000000000E+00   0.0000000000E+00   0.0000000000E+00   0.0000000000E+00   0.1164051025E+01   0.7165114955E-11   0.7165076642E-11   0.1837332595E-16  -0.6043129849E-16   0.1144888913E-15
   0.2091617432E+01   0.9772896506E+00   0.1718865342E-17   0.2000000000E-01  -0.4995266959E-02   0.3531329964E-17   0.7161743164E-01  -0.1771508245E-01  -0.1812464622E-17   0.0000000000E+00   0.0000000000E+00   0.0000000000E+00   0.0000000000E+00   0.0000000000E+00   0.0000000000E+00   0.1164051025E+01   0.7157319130E-11   0.7157165118E-11   0.2352793363E-16   0.1598566247E-15  -0.2465800206E-16
   0.2091617432E+01   0.0000000000E+00   0.9772896506E+00   0.2000000000E-01   0.0000000000E+00  -0.4995266959E-02   0.7161743164E-01   0.0000000000E+00  -0.1771508245E-01   0.0000000000E+00   0.0000000000E+00   0.0000000000E+00   0.0000000000E+00   0.0000000000E+00   0.0000000000E+00   0.1164051025E+01   0.7162909583E-11   0.7163142770E-11  -0.2810633950E-16   0.9654991334E-16   0.5557275263E-17
   0.2091617432E+01   0.9772896506E+00   0.9772896506E+00   0.2000000000E-01  -0.4995266959E-02  -0.4995266959E-02   0.7161743164E-01  -0.1771508245E-01  -0.1771508245E-01   0.0000000000E+00   0.0000000000E+00   0.0000000000E+00   0.0000000000E+00   0.0000000000E+00   0.0000000000E+00   0.1164051025E+01   0.7160317935E-11   0.7160435276E-11   0.1952642849E-16  -0.9149716356E-16  -0.3485198129E-16
     1     2     3     4     5     6     7     8
     2     9    10     3     6    11    12     7
 VARIABLES = X,Y,Z,DU1,DU2,DU3,U1,U2,U3,e11,e22,e33,e12,e13,e23,S11,S22,S33,S12,S13,S23
 ZONE, T="0.2279D+01" F=FEPOINT, I=   12 J=    2 ET=BRICK
   0.0000000000E+00   0.0000000000E+00   0.0000000000E+00   0.0000000000E+00   0.0000000000E+00   0.0000000000E+00   0.0000000000E+00   0.0000000000E+00   0.0000000000E+00   0.0000000000E+00   0.0000000000E+00   0.0000000000E+00   0.0000000000E+00   0.0000000000E+00   0.0000000000E+00   0.1187319008E+01   0.1857747215E-11   0.1857907865E-11  -0.1617614104E-17   0.2127341543E-16   0.5856434902E-16
   0.1055808716E+01   0.0000000000E+00  -0.1749639857E-17   0.1000000000E-01   0.0000000000E+00   0.2816950641E-17   0.4580871582E-01   0.0000000000E+00  -0.4566590498E-17   0.0000000000E+00   0.0000000000E+00   0.0000000000E+00   0.0000000000E+00   0.0000000000E+00   0.0000000000E+00   0.1187319008E+01   0.1873049009E-11   0.1872898597E-11   0.9442610818E-16  -0.3024907985E-16   0.6546279925E-16
   0.1055808716E+01   0.9722935286E+00   0.6386687272E-17   0.1000000000E-01  -0.4996122003E-02   0.9616363879E-17   0.4580871582E-01  -0.2271034941E-01  -0.3229676607E-17   0.0000000000E+00   0.0000000000E+00   0.0000000000E+00   0.0000000000E+00   0.0000000000E+00   0.0000000000E+00   0.1187319008E+01   0.1872953651E-11   0.1872834513E-11   0.1020165924E-15  -0.5874559258E-16  -0.6379812749E-16
   0.0000000000E+00   0.9722935286E+00   0.9190682547E-17   0.0000000000E+00  -0.4996122003E-02   0.1983135584E-16   0.0000000000E+00  -0.2271034941E-01  -0.1064067329E-16   0.0000000000E+00   0.0000000000E+00   0.0000000000E+00   0.0000000000E+00   0.0000000000E+00   0.0000000000E+00   0.1187319008E+01   0.1859662754E-11   0.1859578519E-11   0.6233013493E-16   0.3613605235E-16   0.1060720608E-15
   0.0000000000E+00   0.0000000000E+00   0.9722935286E+00   0.0000000000E+00   0.0000000000E+00  -0.4996122003E-02   0.0000000000E+00   0.0000000000E+00  -0.2271034941E-01   0.0000000000E+00   0.0000000000E+00   0.0000000000E+00   0.0000000000E+00   0.0000000000E+00   0.0000000000E+00   0.1187319008E+01   0.1878978175E-11   0.1879107550E-11  -0.4108269723E-17  -0.8062821034E-16  -0.8833520722E-16
   0.1055808716E+01   0.0000000000E+00   0.9722935286E+00   0.1000000000E-01   0.0000000000E+00  -0.4996122003E-02   0.4580871582E-01   0.0000000000E+00  -0.2271034941E-01   0.0000000000E+00   0.0000000000E+00   0.0000000000E+00   0.0000000000E+00   0.0000000000E+00   0.0000000000E+00   0.1187319008E+01   0.1862502590E-11   0.1862468896E-11   0.2619830917E-16   0.8973386231E-16   0.5975460119E-16
   0.1055808716E+01   0.9722935286E+00   0.9722935286E+00   0.1000000000E-01  -0.4996122003E-02  -0.4996122003E-02   0.4580871582E-01  -0.2271034941E-01  -0.2271034941E-01   0.0000000000E+00   0.0000000000E+00   0.0000000000E+00   0.0000000000E+00   0.0000000000E+00   0.0000000000E+00   0.1187319008E+01   0.1872916653E-11   0.1872914233E-11  -0.2407152995E-16  -0.4124000456E-16  -0.3776929691E-16
   0.0000000000E+00   0.9722935286E+00   0.9722935286E+00   0.0000000000E+00  -0.4996122003E-02  -0.4996122003E-02   0.0000000000E+00  -0.2271034941E-01  -0.2271034941E-01   0.0000000000E+00   0.0000000000E+00   0.0000000000E+00   0.0000000000E+00   0.0000000000E+00   0.0000000000E+00   0.1187319008E+01   0.1875814081E-11   0.1875698572E-11  -0.6355038052E-16   0.2655109720E-16  -0.4625217027E-16
   0.2111617432E+01   0.0000000000E+00   0.1267947703E-17   0.2000000000E-01   0.0000000000E+00   0.8497735905E-17   0.9161743164E-01   0.0000000000E+00  -0.7229788201E-17   0.0000000000E+00   0.0000000000E+00   0.0000000000E+00   0.0000000000E+00   0.0000000000E+00   0.0000000000E+00   0.1187319008E+01   0.1881948667E-11   0.1882039511E-11  -0.3020389556E-17  -0.5381219683E-16  -0.5894413298E-16
   0.2111617432E+01   0.9722935286E+00  -0.4901192995E-17   0.2000000000E-01  -0.4996122003E-02  -0.6620058337E-17   0.9161743164E-01  -0.2271034941E-01   0.1718865342E-17   0.0000000000E+00   0.0000000000E+00   0.0000000000E+00   0.0000000000E+00   0.0000000000E+00   0.0000000000E+00   0.1187319008E+01   0.1859375890E-11   0.1859478181E-11   0.7419949499E-17   0.1656909511E-15   0.3086229652E-16
   0.2111617432E+01   0.0000000000E+00   0.9722935286E+00   0.2000000000E-01   0.0000000000E+00  -0.4996122003E-02   0.9161743164E-01   0.0000000000E+00  -0.2271034941E-01   0.0000000000E+00   0.0000000000E+00   0.0000000000E+00   0.0000000000E+00   0.0000000000E+00   0.0000000000E+00   0.1187319008E+01   0.1860791704E-11   0.1860851273E-11   0.5863468721E-16  -0.4253621518E-16   0.1208676011E-16
   0.2111617432E+01   0.9722935286E+00   0.9722935286E+00   0.2000000000E-01  -0.4996122003E-02  -0.4996122003E-02   0.9161743164E-01  -0.2271034941E-01  -0.2271034941E-01   0.0000000000E+00   0.0000000000E+00   0.0000000000E+00   0.0000000000E+00   0.0000000000E+00   0.0000000000E+00   0.1187319008E+01   0.1864061068E-11   0.1864132084E-11   0.1247999793E-15   0.8193012654E-16  -0.1742639340E-16
     1     2     3     4     5     6     7     8
     2     9    10     3     6    11    12     7
 VARIABLES = X,Y,Z,DU1,DU2,DU3,U1,U2,U3,e11,e22,e33,e12,e13,e23,S11,S22,S33,S12,S13,S23
 ZONE, T="0.2329D+01" F=FEPOINT, I=   12 J=    2 ET=BRICK
   0.0000000000E+00   0.0000000000E+00   0.0000000000E+00   0.0000000000E+00   0.0000000000E+00   0.0000000000E+00   0.0000000000E+00   0.0000000000E+00   0.0000000000E+00   0.0000000000E+00   0.0000000000E+00   0.0000000000E+00   0.0000000000E+00   0.0000000000E+00   0.0000000000E+00   0.1207090247E+01   0.6491863081E-12   0.6491990215E-12   0.1240964046E-16  -0.4168956979E-17   0.1290458233E-16
   0.1065808716E+01   0.0000000000E+00   0.1043253865E-17   0.1000000000E-01   0.0000000000E+00   0.2792893722E-17   0.5580871582E-01   0.0000000000E+00  -0.1749639857E-17   0.0000000000E+00   0.0000000000E+00   0.0000000000E+00   0.0000000000E+00   0.0000000000E+00   0.0000000000E+00   0.1207090247E+01   0.6468488247E-12   0.6469167658E-12  -0.3412031529E-16  -0.4128692665E-16   0.5659774740E-16
   0.1065808716E+01   0.9672968238E+00   0.7112712445E-17   0.1000000000E-01  -0.4996704794E-02   0.7260251729E-18   0.5580871582E-01  -0.2770647141E-01   0.6386687272E-17   0.0000000000E+00   0.0000000000E+00   0.0000000000E+00   0.0000000000E+00   0.0000000000E+00   0.0000000000E+00   0.1207090246E+01   0.6432771055E-12   0.6430971829E-12  -0.2011368170E-16  -0.2556803056E-16   0.6160867193E-16
   0.0000000000E+00   0.9672968238E+00  -0.5162297690E-18   0.0000000000E+00  -0.4996704794E-02  -0.9706912316E-17   0.0000000000E+00  -0.2770647141E-01   0.9190682547E-17   0.0000000000E+00   0.0000000000E+00   0.0000000000E+00   0.0000000000E+00   0.0000000000E+00   0.0000000000E+00   0.1207090246E+01   0.6472262220E-12   0.6473161833E-12   0.3355189460E-16   0.5172070963E-16   0.1022233124E-15
   0.0000000000E+00   0.0000000000E+00   0.9672968238E+00   0.0000000000E+00   0.0000000000E+00  -0.4996704794E-02   0.0000000000E+00   0.0000000000E+00  -0.2770647141E-01   0.0000000000E+00   0.0000000000E+00   0.0000000000E+00   0.0000000000E+00   0.0000000000E+00   0.0000000000E+00   0.1207090246E+01   0.6333567535E-12   0.6331682872E-12  -0.1443226278E-16   0.3792614988E-16  -0.4082905589E-16
   0.1065808716E+01   0.0000000000E+00   0.9672968238E+00   0.1000000000E-01   0.0000000000E+00  -0.4996704794E-02   0.5580871582E-01   0.0000000000E+00  -0.2770647141E-01   0.0000000000E+00   0.0000000000E+00   0.0000000000E+00   0.0000000000E+00   0.0000000000E+00   0.0000000000E+00   0.1207090246E+01   0.6348671272E-12   0.6349889741E-12   0.1135354588E-15  -0.4432178867E-16  -0.6964618499E-16
   0.1065808716E+01   0.9672968238E+00   0.9672968238E+00   0.1000000000E-01  -0.4996704794E-02  -0.4996704794E-02   0.5580871582E-01  -0.2770647141E-01  -0.2770647141E-01   0.0000000000E+00   0.0000000000E+00   0.0000000000E+00   0.0000000000E+00   0.0000000000E+00   0.0000000000E+00   0.1207090246E+01   0.6101769598E-12   0.6100509432E-12  -0.8430655589E-18  -0.6436537048E-16  -0.4760092890E-16
   0.0000000000E+00   0.9672968238E+00   0.9672968238E+00   0.0000000000E+00  -0.4996704794E-02  -0.4996704794E-02   0.0000000000E+00  -0.2770647141E-01  -0.2770647141E-01   0.0000000000E+00   0.0000000000E+00   0.0000000000E+00   0.0000000000E+00   0.0000000000E+00   0.0000000000E+00   0.1207090246E+01   0.6418750321E-12   0.6417638137E-12  -0.6219628985E-16   0.3230512548E-16  -0.3596223008E-16
   0.2131617432E+01   0.0000000000E+00   0.2239196607E-17   0.2000000000E-01   0.0000000000E+00   0.9712489034E-18   0.1116174316E+00   0.0000000000E+00   0.1267947703E-17   0.0000000000E+00   0.0000000000E+00   0.0000000000E+00   0.0000000000E+00   0.0000000000E+00   0.0000000000E+00   0.1207090247E+01   0.6191680385E-12   0.6194923869E-12   0.7294274613E-16  -0.4746174625E-16   0.5281722721E-16
   0.2131617432E+01   0.9672968238E+00   0.7605645510E-17   0.2000000000E-01  -0.4996704794E-02   0.1250683851E-16   0.1116174316E+00  -0.2770647141E-01  -0.4901192995E-17   0.0000000000E+00   0.0000000000E+00   0.0000000000E+00   0.0000000000E+00   0.0000000000E+00   0.0000000000E+00   0.1207090246E+01   0.6344529113E-12   0.6344593702E-12   0.9517324104E-18   0.1100163458E-15   0.5142948208E-16
   0.2131617432E+01   0.0000000000E+00   0.9672968238E+00   0.2000000000E-01   0.0000000000E+00  -0.4996704794E-02   0.1116174316E+00   0.0000000000E+00  -0.2770647141E-01   0.0000000000E+00   0.0000000000E+00   0.0000000000E+00   0.0000000000E+00   0.0000000000E+00   0.0000000000E+00   0.1207090246E+01   0.6528292731E-12   0.6529524418E-12  -0.1102140640E-15  -0.1931229499E-16  -0.1391029747E-15
   0.2131617432E+01   0.9672968238E+00   0.9672968238E+00   0.2000000000E-01  -0.4996704794E-02  -0.4996704794E-02   0.1116174316E+00  -0.2770647141E-01  -0.2770647141E-01   0.0000000000E+00   0.0000000000E+00   0.0000000000E+00   0.0000000000E+00   0.0000000000E+00   0.0000000000E+00   0.1207090246E+01   0.6158407061E-12   0.6156459854E-12  -0.9826019230E-16   0.6170935180E-16   0.3053525812E-17
     1     2     3     4     5     6     7     8
     2     9    10     3     6    11    12     7
 VARIABLES = X,Y,Z,DU1,DU2,DU3,U1,U2,U3,e11,e22,e33,e12,e13,e23,S11,S22,S33,S12,S13,S23
 ZONE, T="0.2379D+01" F=FEPOINT, I=   12 J=    2 ET=BRICK
   0.0000000000E+00   0.0000000000E+00   0.0000000000E+00   0.0000000000E+00   0.0000000000E+00   0.0000000000E+00   0.0000000000E+00   0.0000000000E+00   0.0000000000E+00   0.0000000000E+00   0.0000000000E+00   0.0000000000E+00   0.0000000000E+00   0.0000000000E+00   0.0000000000E+00   0.1224317092E+01   0.2562481771E-12   0.2564158888E-12  -0.6454131621E-17   0.3115552037E-16   0.1335516073E-16
   0.1075808716E+01   0.0000000000E+00   0.1767005403E-17   0.1000000000E-01   0.0000000000E+00   0.7237515381E-18   0.6580871582E-01   0.0000000000E+00   0.1043253865E-17   0.0000000000E+00   0.0000000000E+00   0.0000000000E+00   0.0000000000E+00   0.0000000000E+00   0.0000000000E+00   0.1224317092E+01   0.2649982502E-12   0.2650343255E-12  -0.6971331265E-16  -0.2499741446E-16  -0.3767094602E-16
   0.1075808716E+01   0.9622996949E+00  -0.4183055492E-17   0.1000000000E-01  -0.4997128859E-02  -0.1129576794E-16   0.6580871582E-01  -0.3270317620E-01   0.7112712445E-17   0.0000000000E+00   0.0000000000E+00   0.0000000000E+00   0.0000000000E+00   0.0000000000E+00   0.0000000000E+00   0.1224317092E+01   0.2529473289E-12   0.2530308489E-12  -0.1803448690E-16   0.4967548411E-17   0.2056100641E-16
   0.0000000000E+00   0.9622996949E+00   0.4344893031E-17   0.0000000000E+00  -0.4997128859E-02   0.4861122800E-17   0.0000000000E+00  -0.3270317620E-01  -0.5162297690E-18   0.0000000000E+00   0.0000000000E+00   0.0000000000E+00   0.0000000000E+00   0.0000000000E+00   0.0000000000E+00   0.1224317092E+01   0.2482650525E-12   0.2482556979E-12  -0.7262045385E-16  -0.1187713884E-17   0.3828702766E-16
   0.0000000000E+00   0.0000000000E+00   0.9622996949E+00   0.0000000000E+00   0.0000000000E+00  -0.4997128859E-02   0.0000000000E+00   0.0000000000E+00  -0.3270317620E-01   0.0000000000E+00   0.0000000000E+00   0.0000000000E+00   0.0000000000E+00   0.0000000000E+00   0.0000000000E+00   0.1224317092E+01   0.2778096190E-12   0.2778358479E-12  -0.1319119699E-16  -0.3940721459E-16  -0.7268248458E-16
   0.1075808716E+01   0.0000000000E+00   0.9622996949E+00   0.1000000000E-01   0.0000000000E+00  -0.4997128859E-02   0.6580871582E-01   0.0000000000E+00  -0.3270317620E-01   0.0000000000E+00   0.0000000000E+00   0.0000000000E+00   0.0000000000E+00   0.0000000000E+00   0.0000000000E+00   0.1224317092E+01   0.2584320336E-12   0.2583622096E-12   0.3998078792E-16  -0.1532903575E-17   0.1708178639E-16
   0.1075808716E+01   0.9622996949E+00   0.9622996949E+00   0.1000000000E-01  -0.4997128859E-02  -0.4997128859E-02   0.6580871582E-01  -0.3270317620E-01  -0.3270317620E-01   0.0000000000E+00   0.0000000000E+00   0.0000000000E+00   0.0000000000E+00   0.0000000000E+00   0.0000000000E+00   0.1224317092E+01   0.2672388792E-12   0.2672165001E-12  -0.2637672683E-16   0.1178239862E-15  -0.5284591816E-16
   0.0000000000E+00   0.9622996949E+00   0.9622996949E+00   0.0000000000E+00  -0.4997128859E-02  -0.4997128859E-02   0.0000000000E+00  -0.3270317620E-01  -0.3270317620E-01   0.0000000000E+00   0.0000000000E+00   0.0000000000E+00   0.0000000000E+00   0.0000000000E+00   0.0000000000E+00   0.1224317092E+01   0.2591320118E-12   0.2589811744E-12   0.4256640511E-16  -0.3958888741E-16   0.6729463815E-16
   0.2151617432E+01   0.0000000000E+00  -0.1100653824E-16   0.2000000000E-01   0.0000000000E+00  -0.1324573484E-16   0.1316174316E+00   0.0000000000E+00   0.2239196607E-17   0.0000000000E+00   0.0000000000E+00   0.0000000000E+00   0.0000000000E+00   0.0000000000E+00   0.0000000000E+00   0.1224317092E+01   0.2900536651E-12   0.2902300598E-12  -0.2384441222E-16   0.7639513789E-16  -0.1400396408E-16
   0.2151617432E+01   0.9622996949E+00  -0.1147914314E-16   0.2000000000E-01  -0.4997128859E-02  -0.1908478865E-16   0.1316174316E+00  -0.3270317620E-01   0.7605645510E-17   0.0000000000E+00   0.0000000000E+00   0.0000000000E+00   0.0000000000E+00   0.0000000000E+00   0.0000000000E+00   0.1224317092E+01   0.2326082777E-12   0.2326076060E-12   0.1168250191E-16  -0.8606335641E-16   0.6547317680E-16
   0.2151617432E+01   0.0000000000E+00   0.9622996949E+00   0.2000000000E-01   0.0000000000E+00  -0.4997128859E-02   0.1316174316E+00   0.0000000000E+00  -0.3270317620E-01   0.0000000000E+00   0.0000000000E+00   0.0000000000E+00   0.0000000000E+00   0.0000000000E+00   0.0000000000E+00   0.1224317092E+01   0.2764831564E-12   0.2763647244E-12  -0.1591507074E-16   0.1984581970E-16  -0.2888144814E-16
   0.2151617432E+01   0.9622996949E+00   0.9622996949E+00   0.2000000000E-01  -0.4997128859E-02  -0.4997128859E-02   0.1316174316E+00  -0.3270317620E-01  -0.3270317620E-01   0.0000000000E+00   0.0000000000E+00   0.0000000000E+00   0.0000000000E+00   0.0000000000E+00   0.0000000000E+00   0.1224317092E+01   0.2710589209E-12   0.2707634225E-12   0.6950226385E-16  -0.3776652084E-16   0.8123268532E-17
     1     2     3     4     5     6     7     8
     2     9    10     3     6    11    12     7
 VARIABLES = X,Y,Z,DU1,DU2,DU3,U1,U2,U3,e11,e22,e33,e12,e13,e23,S11,S22,S33,S12,S13,S23
 ZONE, T="0.2429D+01" F=FEPOINT, I=   12 J=    2 ET=BRICK
   0.0000000000E+00   0.0000000000E+00   0.0000000000E+00   0.0000000000E+00   0.0000000000E+00   0.0000000000E+00   0.0000000000E+00   0.0000000000E+00   0.0000000000E+00   0.0000000000E+00   0.0000000000E+00   0.0000000000E+00   0.0000000000E+00   0.0000000000E+00   0.0000000000E+00   0.1239605159E+01   0.1184960222E-12   0.1185317039E-12  -0.2462116429E-16  -0.1539699556E-16   0.7358321697E-16
   0.1085808716E+01   0.0000000000E+00  -0.5757617190E-17   0.1000000000E-01   0.0000000000E+00  -0.7524622593E-17   0.7580871582E-01   0.0000000000E+00   0.1767005403E-17   0.0000000000E+00   0.0000000000E+00   0.0000000000E+00   0.0000000000E+00   0.0000000000E+00   0.0000000000E+00   0.1239605159E+01   0.1090011762E-12   0.1088138123E-12   0.5404561138E-16   0.1461772495E-15   0.5738690991E-17
   0.1085808716E+01   0.9573022429E+00  -0.4433441127E-17   0.1000000000E-01  -0.4997451989E-02  -0.2503856354E-18   0.7580871582E-01  -0.3770030506E-01  -0.4183055492E-17   0.0000000000E+00   0.0000000000E+00   0.0000000000E+00   0.0000000000E+00   0.0000000000E+00   0.0000000000E+00   0.1239605159E+01   0.1214931112E-12   0.1213849259E-12  -0.5734991729E-16   0.3257729214E-16  -0.2776586975E-16
   0.0000000000E+00   0.9573022429E+00   0.1614145879E-16   0.0000000000E+00  -0.4997451989E-02   0.1179656576E-16   0.0000000000E+00  -0.3770030506E-01   0.4344893031E-17   0.0000000000E+00   0.0000000000E+00   0.0000000000E+00   0.0000000000E+00   0.0000000000E+00   0.0000000000E+00   0.1239605159E+01   0.9821924069E-13   0.9807830275E-13   0.5171686516E-17  -0.1235634649E-15   0.3237490888E-17
   0.0000000000E+00   0.0000000000E+00   0.9573022429E+00   0.0000000000E+00   0.0000000000E+00  -0.4997451989E-02   0.0000000000E+00   0.0000000000E+00  -0.3770030506E-01   0.0000000000E+00   0.0000000000E+00   0.0000000000E+00   0.0000000000E+00   0.0000000000E+00   0.0000000000E+00   0.1239605159E+01   0.1327854126E-12   0.1329526348E-12   0.2896455115E-16  -0.1207899539E-15  -0.1077693537E-16
   0.1085808716E+01   0.0000000000E+00   0.9573022429E+00   0.1000000000E-01   0.0000000000E+00  -0.4997451989E-02   0.7580871582E-01   0.0000000000E+00  -0.3770030506E-01   0.0000000000E+00   0.0000000000E+00   0.0000000000E+00   0.0000000000E+00   0.0000000000E+00   0.0000000000E+00   0.1239605159E+01   0.1088852546E-12   0.1088562566E-12   0.4029616827E-17   0.9843554076E-16  -0.8920202384E-17
   0.1085808716E+01   0.9573022429E+00   0.9573022429E+00   0.1000000000E-01  -0.4997451989E-02  -0.4997451989E-02   0.7580871582E-01  -0.3770030506E-01  -0.3770030506E-01   0.0000000000E+00   0.0000000000E+00   0.0000000000E+00   0.0000000000E+00   0.0000000000E+00   0.0000000000E+00   0.1239605159E+01   0.1006340375E-12   0.1006842478E-12   0.1826421648E-15   0.6980687127E-16  -0.7785234335E-16
   0.0000000000E+00   0.9573022429E+00   0.9573022429E+00   0.0000000000E+00  -0.4997451989E-02  -0.4997451989E-02   0.0000000000E+00  -0.3770030506E-01  -0.3770030506E-01   0.0000000000E+00   0.0000000000E+00   0.0000000000E+00   0.0000000000E+00   0.0000000000E+00   0.0000000000E+00   0.1239605159E+01   0.1226427929E-12   0.1226331882E-12  -0.6694426566E-16  -0.4914742384E-16  -0.1501389289E-16
   0.2171617432E+01   0.0000000000E+00  -0.1533928431E-16   0.2000000000E-01   0.0000000000E+00  -0.4332746070E-17   0.1516174316E+00   0.0000000000E+00  -0.1100653824E-16   0.0000000000E+00   0.0000000000E+00   0.0000000000E+00   0.0000000000E+00   0.0000000000E+00   0.0000000000E+00   0.1239605159E+01   0.1066931717E-12   0.1067578637E-12  -0.7173731830E-17   0.1124035597E-15  -0.5423173091E-16
   0.2171617432E+01   0.9573022429E+00  -0.3443518743E-16   0.2000000000E-01  -0.4997451989E-02  -0.2295604429E-16   0.1516174316E+00  -0.3770030506E-01  -0.1147914314E-16   0.0000000000E+00   0.0000000000E+00   0.0000000000E+00   0.0000000000E+00   0.0000000000E+00   0.0000000000E+00   0.1239605159E+01   0.1316856505E-12   0.1318846930E-12  -0.1134989109E-15  -0.1580178592E-15  -0.1154405141E-16
   0.2171617432E+01   0.0000000000E+00   0.9573022429E+00   0.2000000000E-01   0.0000000000E+00  -0.4997451989E-02   0.1516174316E+00   0.0000000000E+00  -0.3770030506E-01   0.0000000000E+00   0.0000000000E+00   0.0000000000E+00   0.0000000000E+00   0.0000000000E+00   0.0000000000E+00   0.1239605159E+01   0.1343538014E-12   0.1342021284E-12  -0.8257619155E-17  -0.1294762831E-15   0.7297608496E-16
   0.2171617432E+01   0.9573022429E+00   0.9573022429E+00   0.2000000000E-01  -0.4997451989E-02  -0.4997451989E-02   0.1516174316E+00  -0.3770030506E-01  -0.3770030506E-01   0.0000000000E+00   0.0000000000E+00   0.0000000000E+00   0.0000000000E+00   0.0000000000E+00   0.0000000000E+00   0.1239605159E+01   0.1070303365E-12   0.1070129992E-12   0.1780737059E-16  -0.2018988866E-15   0.1933580559E-15
     1     2     3     4     5     6     7     8
     2     9    10     3     6    11    12     7
 VARIABLES = X,Y,Z,DU1,DU2,DU3,U1,U2,U3,e11,e22,e33,e12,e13,e23,S11,S22,S33,S12,S13,S23
 ZONE, T="0.2479D+01" F=FEPOINT, I=   12 J=    2 ET=BRICK
   0.0000000000E+00   0.0000000000E+00   0.0000000000E+00   0.0000000000E+00   0.0000000000E+00   0.0000000000E+00   0.0000000000E+00   0.0000000000E+00   0.0000000000E+00   0.0000000000E+00   0.0000000000E+00   0.0000000000E+00   0.0000000000E+00   0.0000000000E+00   0.0000000000E+00   0.1253364327E+01   0.9687913541E-13   0.9680951042E-13   0.2343680892E-16  -0.4764520294E-16   0.3210279580E-16
   0.1095808716E+01   0.0000000000E+00  -0.6866848675E-17   0.1000000000E-01   0.0000000000E+00  -0.1109231485E-17   0.8580871582E-01   0.0000000000E+00  -0.5757617190E-17   0.0000000000E+00   0.0000000000E+00   0.0000000000E+00   0.0000000000E+00   0.0000000000E+00   0.0000000000E+00   0.1253364327E+01   0.6975301223E-13   0.6964400159E-13  -0.7357877566E-16  -0.1335529252E-15   0.7671054883E-16
   0.1095808716E+01   0.9523045361E+00   0.5752811428E-17   0.1000000000E-01  -0.4997706805E-02   0.1018625256E-16   0.8580871582E-01  -0.4269775705E-01  -0.4433441127E-17   0.0000000000E+00   0.0000000000E+00   0.0000000000E+00   0.0000000000E+00   0.0000000000E+00   0.0000000000E+00   0.1253364327E+01   0.4530326894E-13   0.4516098280E-13  -0.1594836018E-16   0.5053918007E-16  -0.6385216842E-16
   0.0000000000E+00   0.9523045361E+00   0.4063177919E-17   0.0000000000E+00  -0.4997706805E-02  -0.1207828087E-16   0.0000000000E+00  -0.4269775705E-01   0.1614145879E-16   0.0000000000E+00   0.0000000000E+00   0.0000000000E+00   0.0000000000E+00   0.0000000000E+00   0.0000000000E+00   0.1253364327E+01   0.4563321429E-13   0.4545598567E-13   0.2705234023E-16  -0.3449178246E-17   0.7660471206E-17
   0.0000000000E+00   0.0000000000E+00   0.9523045361E+00   0.0000000000E+00   0.0000000000E+00  -0.4997706805E-02   0.0000000000E+00   0.0000000000E+00  -0.4269775705E-01   0.0000000000E+00   0.0000000000E+00   0.0000000000E+00   0.0000000000E+00   0.0000000000E+00   0.0000000000E+00   0.1253364327E+01   0.6154361017E-13   0.6165061119E-13  -0.5341782116E-17   0.9369066488E-16   0.5351434181E-16
   0.1095808716E+01   0.0000000000E+00   0.9523045361E+00   0.1000000000E-01   0.0000000000E+00  -0.4997706805E-02   0.8580871582E-01   0.0000000000E+00  -0.4269775705E-01   0.0000000000E+00   0.0000000000E+00   0.0000000000E+00   0.0000000000E+00   0.0000000000E+00   0.0000000000E+00   0.1253364327E+01   0.4897475996E-13   0.4907565082E-13   0.9937283148E-16  -0.7306319279E-16   0.6151325909E-18
   0.1095808716E+01   0.9523045361E+00   0.9523045361E+00   0.1000000000E-01  -0.4997706805E-02  -0.4997706805E-02   0.8580871582E-01  -0.4269775705E-01  -0.4269775705E-01   0.0000000000E+00   0.0000000000E+00   0.0000000000E+00   0.0000000000E+00   0.0000000000E+00   0.0000000000E+00   0.1253364327E+01   0.6591005780E-13   0.6597767316E-13   0.8632986408E-16   0.9191874365E-16  -0.5793397199E-16
   0.0000000000E+00   0.9523045361E+00   0.9523045361E+00   0.0000000000E+00  -0.4997706805E-02  -0.4997706805E-02   0.0000000000E+00  -0.4269775705E-01  -0.4269775705E-01   0.0000000000E+00   0.0000000000E+00   0.0000000000E+00   0.0000000000E+00   0.0000000000E+00   0.0000000000E+00   0.1253364327E+01   0.5221259525E-13   0.5221206307E-13  -0.5486815334E-16  -0.3273105056E-16  -0.2324709037E-16
   0.2191617432E+01   0.0000000000E+00  -0.9240709932E-17   0.2000000000E-01   0.0000000000E+00   0.6098574375E-17   0.1716174316E+00   0.0000000000E+00  -0.1533928431E-16   0.0000000000E+00   0.0000000000E+00   0.0000000000E+00   0.0000000000E+00   0.0000000000E+00   0.0000000000E+00   0.1253364327E+01   0.5929277038E-13   0.5928777153E-13   0.4693836611E-16   0.8276519713E-16   0.8193241452E-16
   0.2191617432E+01   0.9523045361E+00   0.1199228601E-16   0.2000000000E-01  -0.4997706805E-02   0.4642747345E-16   0.1716174316E+00  -0.4269775705E-01  -0.3443518743E-16   0.0000000000E+00   0.0000000000E+00   0.0000000000E+00   0.0000000000E+00   0.0000000000E+00   0.0000000000E+00   0.1253364327E+01   0.4050771473E-13   0.4036194784E-13   0.1077274605E-15   0.2164533883E-16  -0.6150318900E-16
   0.2191617432E+01   0.0000000000E+00   0.9523045361E+00   0.2000000000E-01   0.0000000000E+00  -0.4997706805E-02   0.1716174316E+00   0.0000000000E+00  -0.4269775705E-01   0.0000000000E+00   0.0000000000E+00   0.0000000000E+00   0.0000000000E+00   0.0000000000E+00   0.0000000000E+00   0.1253364327E+01   0.5257515885E-13   0.5281333700E-13  -0.4541666724E-16   0.1020038537E-15   0.1116488457E-15
   0.2191617432E+01   0.9523045361E+00   0.9523045361E+00   0.2000000000E-01  -0.4997706805E-02  -0.4997706805E-02   0.1716174316E+00  -0.4269775705E-01  -0.4269775705E-01   0.0000000000E+00   0.0000000000E+00   0.0000000000E+00   0.0000000000E+00   0.0000000000E+00   0.0000000000E+00   0.1253364327E+01   0.7527498368E-13   0.7537232336E-13  -0.8759378645E-16  -0.1434725811E-15  -0.1211233910E-15
     1     2     3     4     5     6     7     8
     2     9    10     3     6    11    12     7
 VARIABLES = X,Y,Z,DU1,DU2,DU3,U1,U2,U3,e11,e22,e33,e12,e13,e23,S11,S22,S33,S12,S13,S23
 ZONE, T="0.2529D+01" F=FEPOINT, I=   12 J=    2 ET=BRICK
   0.0000000000E+00   0.0000000000E+00   0.0000000000E+00   0.0000000000E+00   0.0000000000E+00   0.0000000000E+00   0.0000000000E+00   0.0000000000E+00   0.0000000000E+00   0.0000000000E+00   0.0000000000E+00   0.0000000000E+00   0.0000000000E+00   0.0000000000E+00   0.0000000000E+00   0.1251229352E+01   0.1256716879E-13   0.1269530254E-13  -0.9290867612E-17   0.8951559385E-16  -0.2396333451E-16
   0.1094191284E+01   0.0000000000E+00   0.9928445206E-17  -0.1617431641E-02   0.0000000000E+00   0.1679529388E-16   0.9580871582E-01   0.0000000000E+00  -0.6866848675E-17   0.0000000000E+00   0.0000000000E+00   0.0000000000E+00   0.0000000000E+00   0.0000000000E+00   0.0000000000E+00   0.1251229352E+01   0.1108436782E-13   0.1097367825E-13  -0.1120280352E-15  -0.2032937935E-15  -0.3224063728E-16
   0.1094191284E+01   0.9531128961E+00   0.8153217326E-17  -0.1617431641E-02   0.8083599911E-03   0.2400405898E-17   0.9580871582E-01  -0.4769546386E-01   0.5752811428E-17   0.0000000000E+00   0.0000000000E+00   0.0000000000E+00   0.0000000000E+00   0.0000000000E+00   0.0000000000E+00   0.1251229352E+01   0.8865291327E-14   0.8880664186E-14  -0.9359253499E-16   0.4111117079E-16   0.7146171956E-16
   0.0000000000E+00   0.9531128961E+00  -0.8162213732E-17   0.0000000000E+00   0.8083599911E-03  -0.1222539165E-16   0.0000000000E+00  -0.4769546386E-01   0.4063177919E-17   0.0000000000E+00   0.0000000000E+00   0.0000000000E+00   0.0000000000E+00   0.0000000000E+00   0.0000000000E+00   0.1251229352E+01  -0.4510922260E-14  -0.4285964076E-14   0.3504078765E-16   0.3800494055E-16  -0.3927654137E-17
   0.0000000000E+00   0.0000000000E+00   0.9531128961E+00   0.0000000000E+00   0.0000000000E+00   0.8083599911E-03   0.0000000000E+00   0.0000000000E+00  -0.4769546386E-01   0.0000000000E+00   0.0000000000E+00   0.0000000000E+00   0.0000000000E+00   0.0000000000E+00   0.0000000000E+00   0.1251229352E+01   0.2976321153E-13   0.2970485290E-13   0.2849702936E-16   0.1099461058E-15   0.1015750395E-15
   0.1094191284E+01   0.0000000000E+00   0.9531128961E+00  -0.1617431641E-02   0.0000000000E+00   0.8083599911E-03   0.9580871582E-01   0.0000000000E+00  -0.4769546386E-01   0.0000000000E+00   0.0000000000E+00   0.0000000000E+00   0.0000000000E+00   0.0000000000E+00   0.0000000000E+00   0.1251229352E+01   0.1274782962E-13   0.1269041353E-13  -0.1282681784E-15  -0.1634476876E-15  -0.7463560539E-17
   0.1094191284E+01   0.9531128961E+00   0.9531128961E+00  -0.1617431641E-02   0.8083599911E-03   0.8083599911E-03   0.9580871582E-01  -0.4769546386E-01  -0.4769546386E-01   0.0000000000E+00   0.0000000000E+00   0.0000000000E+00   0.0000000000E+00   0.0000000000E+00   0.0000000000E+00   0.1251229351E+01   0.3118557612E-13   0.3125427800E-13  -0.9297167272E-16  -0.4589716134E-16   0.3879211225E-16
   0.0000000000E+00   0.9531128961E+00   0.9531128961E+00   0.0000000000E+00   0.8083599911E-03   0.8083599911E-03   0.0000000000E+00  -0.4769546386E-01  -0.4769546386E-01   0.0000000000E+00   0.0000000000E+00   0.0000000000E+00   0.0000000000E+00   0.0000000000E+00   0.0000000000E+00   0.1251229351E+01   0.2516565063E-14   0.2555003090E-14   0.4530984873E-16   0.4938849385E-16  -0.4909500611E-16
   0.2188382568E+01   0.0000000000E+00   0.2006279380E-16  -0.3234863281E-02   0.0000000000E+00   0.2930350373E-16   0.1916174316E+00   0.0000000000E+00  -0.9240709932E-17   0.0000000000E+00   0.0000000000E+00   0.0000000000E+00   0.0000000000E+00   0.0000000000E+00   0.0000000000E+00   0.1251229352E+01   0.2049678060E-14   0.1845736776E-14   0.8215751680E-16   0.2009071235E-15   0.3953683623E-16
   0.2188382568E+01   0.9531128961E+00   0.2924312383E-16  -0.3234863281E-02   0.8083599911E-03   0.1725083782E-16   0.1916174316E+00  -0.4769546386E-01   0.1199228601E-16   0.0000000000E+00   0.0000000000E+00   0.0000000000E+00   0.0000000000E+00   0.0000000000E+00   0.0000000000E+00   0.1251229352E+01  -0.6262107058E-14  -0.6495303530E-14   0.1160824975E-15   0.1171347966E-15  -0.1056958326E-15
   0.2188382568E+01   0.0000000000E+00   0.9531128961E+00  -0.3234863281E-02   0.0000000000E+00   0.8083599911E-03   0.1916174316E+00   0.0000000000E+00  -0.4769546386E-01   0.0000000000E+00   0.0000000000E+00   0.0000000000E+00   0.0000000000E+00   0.0000000000E+00   0.0000000000E+00   0.1251229352E+01  -0.1213915234E-13  -0.1205002451E-13   0.4353894407E-16  -0.4263526465E-16   0.2686524883E-16
   0.2188382568E+01   0.9531128961E+00   0.9531128961E+00  -0.3234863281E-02   0.8083599911E-03   0.8083599911E-03   0.1916174316E+00  -0.4769546386E-01  -0.4769546386E-01   0.0000000000E+00   0.0000000000E+00   0.0000000000E+00   0.0000000000E+00   0.0000000000E+00   0.0000000000E+00   0.1251229351E+01   0.3167068646E-13   0.3173055711E-13  -0.9254087875E-16   0.1843260201E-15  -0.1254801107E-15
     1     2     3     4     5     6     7     8
     2     9    10     3     6    11    12     7
 VARIABLES = X,Y,Z,DU1,DU2,DU3,U1,U2,U3,e11,e22,e33,e12,e13,e23,S11,S22,S33,S12,S13,S23
 ZONE, T="0.2579D+01" F=FEPOINT, I=   12 J=    2 ET=BRICK
   0.0000000000E+00   0.0000000000E+00   0.0000000000E+00   0.0000000000E+00   0.0000000000E+00   0.0000000000E+00   0.0000000000E+00   0.0000000000E+00   0.0000000000E+00   0.0000000000E+00   0.0000000000E+00   0.0000000000E+00   0.0000000000E+00   0.0000000000E+00   0.0000000000E+00   0.1237245100E+01  -0.4856601705E-15  -0.5820022537E-15   0.4234686744E-16  -0.1386741588E-15  -0.1946303992E-15
   0.1084191284E+01   0.0000000000E+00  -0.1099387962E-16  -0.1000000000E-01   0.0000000000E+00  -0.2092232482E-16   0.9419128418E-01   0.0000000000E+00   0.9928445206E-17   0.0000000000E+00   0.0000000000E+00   0.0000000000E+00   0.0000000000E+00   0.0000000000E+00   0.0000000000E+00   0.1237245100E+01   0.5477656224E-14   0.5418617657E-14  -0.2033694983E-15   0.8160556877E-16  -0.4822909278E-17
   0.1084191284E+01   0.9581105654E+00  -0.1479827540E-16  -0.1000000000E-01   0.4997669291E-02  -0.2295149272E-16   0.9419128418E-01  -0.4688710386E-01   0.8153217326E-17   0.0000000000E+00   0.0000000000E+00   0.0000000000E+00   0.0000000000E+00   0.0000000000E+00   0.0000000000E+00   0.1237245099E+01   0.1972232546E-13   0.1975976385E-13  -0.1027999150E-15   0.7186044810E-16  -0.4199144684E-16
   0.0000000000E+00   0.9581105654E+00  -0.3397649102E-16   0.0000000000E+00   0.4997669291E-02  -0.2581427728E-16   0.0000000000E+00  -0.4688710386E-01  -0.8162213732E-17   0.0000000000E+00   0.0000000000E+00   0.0000000000E+00   0.0000000000E+00   0.0000000000E+00   0.0000000000E+00   0.1237245099E+01   0.6485813990E-14   0.6834602695E-14   0.1248402644E-15   0.7283408329E-16  -0.1073468015E-15
   0.0000000000E+00   0.0000000000E+00   0.9581105654E+00   0.0000000000E+00   0.0000000000E+00   0.4997669291E-02   0.0000000000E+00   0.0000000000E+00  -0.4688710386E-01   0.0000000000E+00   0.0000000000E+00   0.0000000000E+00   0.0000000000E+00   0.0000000000E+00   0.0000000000E+00   0.1237245099E+01   0.1401459517E-14   0.1323788530E-14  -0.5039349553E-16  -0.8546000798E-17   0.1585705799E-15
   0.1084191284E+01   0.0000000000E+00   0.9581105654E+00  -0.1000000000E-01   0.0000000000E+00   0.4997669291E-02   0.9419128418E-01   0.0000000000E+00  -0.4688710386E-01   0.0000000000E+00   0.0000000000E+00   0.0000000000E+00   0.0000000000E+00   0.0000000000E+00   0.0000000000E+00   0.1237245099E+01   0.1703416688E-14   0.1607035928E-14  -0.3748611689E-17   0.5311141807E-16   0.1046928195E-16
   0.1084191284E+01   0.9581105654E+00   0.9581105654E+00  -0.1000000000E-01   0.4997669291E-02   0.4997669291E-02   0.9419128418E-01  -0.4688710386E-01  -0.4688710386E-01   0.0000000000E+00   0.0000000000E+00   0.0000000000E+00   0.0000000000E+00   0.0000000000E+00   0.0000000000E+00   0.1237245099E+01  -0.4868552046E-14  -0.4868455849E-14  -0.2534558852E-16  -0.1473958278E-16  -0.2241048006E-16
   0.0000000000E+00   0.9581105654E+00   0.9581105654E+00   0.0000000000E+00   0.4997669291E-02   0.4997669291E-02   0.0000000000E+00  -0.4688710386E-01  -0.4688710386E-01   0.0000000000E+00   0.0000000000E+00   0.0000000000E+00   0.0000000000E+00   0.0000000000E+00   0.0000000000E+00   0.1237245099E+01   0.1878125221E-13   0.1914871202E-13  -0.1132873385E-15  -0.5497452229E-16   0.2167274050E-15
   0.2168382568E+01   0.0000000000E+00  -0.4062918632E-17  -0.2000000000E-01   0.0000000000E+00  -0.2412571243E-16   0.1883825684E+00   0.0000000000E+00   0.2006279380E-16   0.0000000000E+00   0.0000000000E+00   0.0000000000E+00   0.0000000000E+00   0.0000000000E+00   0.0000000000E+00   0.1237245100E+01  -0.9379469283E-14  -0.9283075648E-14   0.4790241999E-16  -0.1791530641E-15  -0.8319786066E-17
   0.2168382568E+01   0.9581105654E+00  -0.1185694539E-16  -0.2000000000E-01   0.4997669291E-02  -0.4110006922E-16   0.1883825684E+00  -0.4688710386E-01   0.2924312383E-16   0.0000000000E+00   0.0000000000E+00   0.0000000000E+00   0.0000000000E+00   0.0000000000E+00   0.0000000000E+00   0.1237245099E+01   0.3275089130E-13   0.3279904646E-13  -0.1781770914E-15   0.1992406252E-15   0.3972181584E-16
   0.2168382568E+01   0.0000000000E+00   0.9581105654E+00  -0.2000000000E-01   0.0000000000E+00   0.4997669291E-02   0.1883825684E+00   0.0000000000E+00  -0.4688710386E-01   0.0000000000E+00   0.0000000000E+00   0.0000000000E+00   0.0000000000E+00   0.0000000000E+00   0.0000000000E+00   0.1237245099E+01   0.2223600944E-14   0.2022212808E-14  -0.4901503226E-16  -0.8084718334E-16  -0.1647544871E-15
   0.2168382568E+01   0.9581105654E+00   0.9581105654E+00  -0.2000000000E-01   0.4997669291E-02   0.4997669291E-02   0.1883825684E+00  -0.4688710386E-01  -0.4688710386E-01   0.0000000000E+00   0.0000000000E+00   0.0000000000E+00   0.0000000000E+00   0.0000000000E+00   0.0000000000E+00   0.1237245099E+01  -0.7687632940E-14  -0.7937259553E-14   0.1055479068E-15  -0.2241359803E-15   0.1711513460E-15
     1     2     3     4     5     6     7     8
     2     9    10     3     6    11    12     7
 VARIABLES = X,Y,Z,DU1,DU2,DU3,U1,U2,U3,e11,e22,e33,e12,e13,e23,S11,S22,S33,S12,S13,S23
 ZONE, T="0.2629D+01" F=FEPOINT, I=   12 J=    2 ET=BRICK
   0.0000000000E+00   0.0000000000E+00   0.0000000000E+00   0.0000000000E+00   0.0000000000E+00   0.0000000000E+00   0.0000000000E+00   0.0000000000E+00   0.0000000000E+00   0.0000000000E+00   0.0000000000E+00   0.0000000000E+00   0.0000000000E+00   0.0000000000E+00   0.0000000000E+00   0.1221675199E+01   0.1101556935E-12   0.1101480267E-12   0.1289596497E-16  -0.3825229121E-16   0.9615407564E-16
   0.1074191284E+01   0.0000000000E+00  -0.2240512844E-17  -0.1000000000E-01   0.0000000000E+00   0.8753366773E-17   0.8419128418E-01   0.0000000000E+00  -0.1099387962E-16   0.0000000000E+00   0.0000000000E+00   0.0000000000E+00   0.0000000000E+00   0.0000000000E+00   0.0000000000E+00   0.1221675199E+01   0.1220002695E-12   0.1219672304E-12  -0.5026666269E-16   0.3656525573E-17   0.5274526058E-17
   0.1074191284E+01   0.9631079704E+00  -0.5017354724E-18  -0.1000000000E-01   0.4997405017E-02   0.1429653993E-16   0.8419128418E-01  -0.4188943457E-01  -0.1479827540E-16   0.0000000000E+00   0.0000000000E+00   0.0000000000E+00   0.0000000000E+00   0.0000000000E+00   0.0000000000E+00   0.1221675199E+01   0.8712187738E-13   0.8706465184E-13  -0.2194078234E-16   0.1580700805E-15   0.2178721184E-16
   0.0000000000E+00   0.9631079704E+00   0.3786014280E-17   0.0000000000E+00   0.4997405017E-02   0.3776250530E-16   0.0000000000E+00  -0.4188943457E-01  -0.3397649102E-16   0.0000000000E+00   0.0000000000E+00   0.0000000000E+00   0.0000000000E+00   0.0000000000E+00   0.0000000000E+00   0.1221675199E+01   0.7839932321E-13   0.7840374962E-13   0.1549985848E-16  -0.7230152775E-16  -0.1332673208E-16
   0.0000000000E+00   0.0000000000E+00   0.9631079704E+00   0.0000000000E+00   0.0000000000E+00   0.4997405017E-02   0.0000000000E+00   0.0000000000E+00  -0.4188943457E-01   0.0000000000E+00   0.0000000000E+00   0.0000000000E+00   0.0000000000E+00   0.0000000000E+00   0.0000000000E+00   0.1221675199E+01   0.1073490828E-12   0.1073414160E-12  -0.4682871741E-16  -0.9722498663E-16  -0.1732703285E-15
   0.1074191284E+01   0.0000000000E+00   0.9631079704E+00  -0.1000000000E-01   0.0000000000E+00   0.4997405017E-02   0.8419128418E-01   0.0000000000E+00  -0.4188943457E-01   0.0000000000E+00   0.0000000000E+00   0.0000000000E+00   0.0000000000E+00   0.0000000000E+00   0.0000000000E+00   0.1221675199E+01   0.1012496692E-12   0.1012166301E-12   0.6014128289E-16   0.1418553491E-15   0.5469255192E-17
   0.1074191284E+01   0.9631079704E+00   0.9631079704E+00  -0.1000000000E-01   0.4997405017E-02   0.4997405017E-02   0.8419128418E-01  -0.4188943457E-01  -0.4188943457E-01   0.0000000000E+00   0.0000000000E+00   0.0000000000E+00   0.0000000000E+00   0.0000000000E+00   0.0000000000E+00   0.1221675199E+01   0.1078063993E-12   0.1077491737E-12  -0.1093619875E-15  -0.2895990800E-16   0.5509532797E-16
   0.0000000000E+00   0.9631079704E+00   0.9631079704E+00   0.0000000000E+00   0.4997405017E-02   0.4997405017E-02   0.0000000000E+00  -0.4188943457E-01  -0.4188943457E-01   0.0000000000E+00   0.0000000000E+00   0.0000000000E+00   0.0000000000E+00   0.0000000000E+00   0.0000000000E+00   0.1221675199E+01   0.1172526282E-12   0.1172570547E-12   0.8797777694E-17  -0.4572999653E-17   0.6460013191E-16
   0.2148382568E+01   0.0000000000E+00   0.1966735314E-18  -0.2000000000E-01   0.0000000000E+00   0.4259592164E-17   0.1683825684E+00   0.0000000000E+00  -0.4062918632E-17   0.0000000000E+00   0.0000000000E+00   0.0000000000E+00   0.0000000000E+00   0.0000000000E+00   0.0000000000E+00   0.1221675199E+01   0.1297584504E-12   0.1296516661E-12   0.5646453976E-16  -0.6415267165E-16  -0.1099105274E-15
   0.2148382568E+01   0.9631079704E+00  -0.1452923429E-16  -0.2000000000E-01   0.4997405017E-02  -0.2672288901E-17   0.1683825684E+00  -0.4188943457E-01  -0.1185694539E-16   0.0000000000E+00   0.0000000000E+00   0.0000000000E+00   0.0000000000E+00   0.0000000000E+00   0.0000000000E+00   0.1221675199E+01   0.1119493427E-12   0.1120109946E-12   0.4785859702E-16  -0.2178758863E-15  -0.2145958675E-16
   0.2148382568E+01   0.0000000000E+00   0.9631079704E+00  -0.2000000000E-01   0.0000000000E+00   0.4997405017E-02   0.1683825684E+00   0.0000000000E+00  -0.4188943457E-01   0.0000000000E+00   0.0000000000E+00   0.0000000000E+00   0.0000000000E+00   0.0000000000E+00   0.0000000000E+00   0.1221675199E+01   0.9066739037E-13   0.9056060606E-13   0.2037292718E-16  -0.3309081170E-15   0.4996151775E-16
   0.2148382568E+01   0.9631079704E+00   0.9631079704E+00  -0.2000000000E-01   0.4997405017E-02   0.4997405017E-02   0.1683825684E+00  -0.4188943457E-01  -0.4188943457E-01   0.0000000000E+00   0.0000000000E+00   0.0000000000E+00   0.0000000000E+00   0.0000000000E+00   0.0000000000E+00   0.1221675199E+01   0.1148615516E-12   0.1149232035E-12   0.1028971425E-15   0.3475747922E-15  -0.9004754193E-16
     1     2     3     4     5     6     7     8
     2     9    10     3     6    11    12     7
 VARIABLES = X,Y,Z,DU1,DU2,DU3,U1,U2,U3,e11,e22,e33,e12,e13,e23,S11,S22,S33,S12,S13,S23
 ZONE, T="0.2679D+01" F=FEPOINT, I=   12 J=    2 ET=BRICK
   0.0000000000E+00   0.0000000000E+00   0.0000000000E+00   0.0000000000E+00   0.0000000000E+00   0.0000000000E+00   0.0000000000E+00   0.0000000000E+00   0.0000000000E+00   0.0000000000E+00   0.0000000000E+00   0.0000000000E+00   0.0000000000E+00   0.0000000000E+00   0.0000000000E+00   0.1204084587E+01   0.2524926936E-12   0.2522638707E-12  -0.7610702595E-17   0.2943470282E-16   0.4493602041E-16
   0.1064191284E+01   0.0000000000E+00   0.5932856710E-17  -0.1000000000E-01   0.0000000000E+00   0.8173369554E-17   0.7419128418E-01   0.0000000000E+00  -0.2240512844E-17   0.0000000000E+00   0.0000000000E+00   0.0000000000E+00   0.0000000000E+00   0.0000000000E+00   0.0000000000E+00   0.1204084587E+01   0.2026475854E-12   0.2025028032E-12   0.1773906626E-16   0.7216471055E-16  -0.4392167171E-16
   0.1064191284E+01   0.9681050387E+00  -0.1893500605E-17  -0.1000000000E-01   0.4997068231E-02  -0.1391765132E-17   0.7419128418E-01  -0.3689202956E-01  -0.5017354724E-18   0.0000000000E+00   0.0000000000E+00   0.0000000000E+00   0.0000000000E+00   0.0000000000E+00   0.0000000000E+00   0.1204084587E+01   0.2337920933E-12   0.2339283475E-12   0.5527097666E-16   0.9955701431E-16  -0.1354023746E-15
   0.0000000000E+00   0.9681050387E+00   0.4473994447E-17   0.0000000000E+00   0.4997068231E-02   0.6879801675E-18   0.0000000000E+00  -0.3689202956E-01   0.3786014280E-17   0.0000000000E+00   0.0000000000E+00   0.0000000000E+00   0.0000000000E+00   0.0000000000E+00   0.0000000000E+00   0.1204084587E+01   0.2229825715E-12   0.2228868813E-12  -0.1789189205E-15  -0.1370028078E-15  -0.1671872121E-15
   0.0000000000E+00   0.0000000000E+00   0.9681050387E+00   0.0000000000E+00   0.0000000000E+00   0.4997068231E-02   0.0000000000E+00   0.0000000000E+00  -0.3689202956E-01   0.0000000000E+00   0.0000000000E+00   0.0000000000E+00   0.0000000000E+00   0.0000000000E+00   0.0000000000E+00   0.1204084587E+01   0.2036258536E-12   0.2038048040E-12  -0.4304377111E-18  -0.2710868561E-16   0.1813709796E-15
   0.1064191284E+01   0.0000000000E+00   0.9681050387E+00  -0.1000000000E-01   0.0000000000E+00   0.4997068231E-02   0.7419128418E-01   0.0000000000E+00  -0.3689202956E-01   0.0000000000E+00   0.0000000000E+00   0.0000000000E+00   0.0000000000E+00   0.0000000000E+00   0.0000000000E+00   0.1204084587E+01   0.2361608234E-12   0.2360086557E-12  -0.9336564674E-16   0.1321736039E-15   0.6038311804E-16
   0.1064191284E+01   0.9681050387E+00   0.9681050387E+00  -0.1000000000E-01   0.4997068231E-02   0.4997068231E-02   0.7419128418E-01  -0.3689202956E-01  -0.3689202956E-01   0.0000000000E+00   0.0000000000E+00   0.0000000000E+00   0.0000000000E+00   0.0000000000E+00   0.0000000000E+00   0.1204084587E+01   0.2255131977E-12   0.2256420664E-12  -0.1203040157E-15  -0.9496238308E-16   0.3114924223E-16
   0.0000000000E+00   0.9681050387E+00   0.9681050387E+00   0.0000000000E+00   0.4997068231E-02   0.4997068231E-02   0.0000000000E+00  -0.3689202956E-01  -0.3689202956E-01   0.0000000000E+00   0.0000000000E+00   0.0000000000E+00   0.0000000000E+00   0.0000000000E+00   0.0000000000E+00   0.1204084587E+01   0.1943700904E-12   0.1946821736E-12   0.1046973302E-15  -0.2845861512E-16  -0.1135092338E-15
   0.2128382568E+01   0.0000000000E+00   0.8215226849E-18  -0.2000000000E-01   0.0000000000E+00   0.6248491535E-18   0.1483825684E+00   0.0000000000E+00   0.1966735314E-18   0.0000000000E+00   0.0000000000E+00   0.0000000000E+00   0.0000000000E+00   0.0000000000E+00   0.0000000000E+00   0.1204084587E+01   0.1989102194E-12   0.1987943517E-12   0.1593156896E-16   0.2141984980E-15   0.1313796723E-15
   0.2128382568E+01   0.9681050387E+00   0.1975926636E-16  -0.2000000000E-01   0.4997068231E-02   0.3428850065E-16   0.1483825684E+00  -0.3689202956E-01  -0.1452923429E-16   0.0000000000E+00   0.0000000000E+00   0.0000000000E+00   0.0000000000E+00   0.0000000000E+00   0.0000000000E+00   0.1204084587E+01   0.2492413780E-12   0.2490327326E-12   0.6160828542E-16  -0.5764220856E-15   0.2162786208E-16
   0.2128382568E+01   0.0000000000E+00   0.9681050387E+00  -0.2000000000E-01   0.0000000000E+00   0.4997068231E-02   0.1483825684E+00   0.0000000000E+00  -0.3689202956E-01   0.0000000000E+00   0.0000000000E+00   0.0000000000E+00   0.0000000000E+00   0.0000000000E+00   0.0000000000E+00   0.1204084587E+01   0.2517363004E-12   0.2519804655E-12   0.6273093583E-16  -0.6675588594E-16   0.7686771402E-16
   0.2128382568E+01   0.9681050387E+00   0.9681050387E+00  -0.2000000000E-01   0.4997068231E-02   0.4997068231E-02   0.1483825684E+00  -0.3689202956E-01  -0.3689202956E-01   0.0000000000E+00   0.0000000000E+00   0.0000000000E+00   0.0000000000E+00   0.0000000000E+00   0.0000000000E+00   0.1204084587E+01   0.1986806539E-12   0.1988320413E-12   0.6599315437E-17   0.1416343723E-15   0.1199284641E-16
     1     2     3     4     5     6     7     8
     2     9    10     3     6    11    12     7
 VARIABLES = X,Y,Z,DU1,DU2,DU3,U1,U2,U3,e11,e22,e33,e12,e13,e23,S11,S22,S33,S12,S13,S23
 ZONE, T="0.2729D+01" F=FEPOINT, I=   12 J=    2 ET=BRICK
   0.0000000000E+00   0.0000000000E+00   0.0000000000E+00   0.0000000000E+00   0.0000000000E+00   0.0000000000E+00   0.0000000000E+00   0.0000000000E+00   0.0000000000E+00   0.0000000000E+00   0.0000000000E+00   0.0000000000E+00   0.0000000000E+00   0.0000000000E+00   0.0000000000E+00   0.1183824715E+01   0.5237488969E-12   0.5237973579E-12   0.1081404028E-16   0.6409174065E-16  -0.4372196768E-16
   0.1054191284E+01   0.0000000000E+00   0.2859115323E-17  -0.1000000000E-01   0.0000000000E+00  -0.3073741387E-17   0.6419128418E-01   0.0000000000E+00   0.5932856710E-17   0.0000000000E+00   0.0000000000E+00   0.0000000000E+00   0.0000000000E+00   0.0000000000E+00   0.0000000000E+00   0.1183824715E+01   0.5351425130E-12   0.5352209862E-12   0.3048405445E-16  -0.1173675494E-16  -0.3330800946E-16
   0.1054191284E+01   0.9731016620E+00   0.1230856618E-17  -0.1000000000E-01   0.4996623355E-02   0.3124357223E-17   0.6419128418E-01  -0.3189496133E-01  -0.1893500605E-17   0.0000000000E+00   0.0000000000E+00   0.0000000000E+00   0.0000000000E+00   0.0000000000E+00   0.0000000000E+00   0.1183824714E+01   0.5343813086E-12   0.5343838015E-12   0.1119386112E-15  -0.5930728455E-17   0.1160390586E-16
   0.0000000000E+00   0.9731016620E+00  -0.7557907737E-17   0.0000000000E+00   0.4996623355E-02  -0.1203190218E-16   0.0000000000E+00  -0.3189496133E-01   0.4473994447E-17   0.0000000000E+00   0.0000000000E+00   0.0000000000E+00   0.0000000000E+00   0.0000000000E+00   0.0000000000E+00   0.1183824714E+01   0.5378269741E-12   0.5380171727E-12   0.9127319707E-16   0.2363875870E-16   0.7289056487E-16
   0.0000000000E+00   0.0000000000E+00   0.9731016620E+00   0.0000000000E+00   0.0000000000E+00   0.4996623355E-02   0.0000000000E+00   0.0000000000E+00  -0.3189496133E-01   0.0000000000E+00   0.0000000000E+00   0.0000000000E+00   0.0000000000E+00   0.0000000000E+00   0.0000000000E+00   0.1183824714E+01   0.5409733408E-12   0.5407923783E-12  -0.9382455846E-18  -0.4276647191E-16  -0.1692033965E-15
   0.1054191284E+01   0.0000000000E+00   0.9731016620E+00  -0.1000000000E-01   0.0000000000E+00   0.4996623355E-02   0.6419128418E-01   0.0000000000E+00  -0.3189496133E-01   0.0000000000E+00   0.0000000000E+00   0.0000000000E+00   0.0000000000E+00   0.0000000000E+00   0.0000000000E+00   0.1183824714E+01   0.5463238441E-12   0.5463905767E-12  -0.1010426291E-15  -0.8286402799E-16   0.5769435888E-16
   0.1054191284E+01   0.9731016620E+00   0.9731016620E+00  -0.1000000000E-01   0.4996623355E-02   0.4996623355E-02   0.6419128418E-01  -0.3189496133E-01  -0.3189496133E-01   0.0000000000E+00   0.0000000000E+00   0.0000000000E+00   0.0000000000E+00   0.0000000000E+00   0.0000000000E+00   0.1183824714E+01   0.5248218946E-12   0.5248126468E-12  -0.1886179752E-15  -0.8643421882E-16  -0.1159659002E-15
   0.0000000000E+00   0.9731016620E+00   0.9731016620E+00   0.0000000000E+00   0.4996623355E-02   0.4996623355E-02   0.0000000000E+00  -0.3189496133E-01  -0.3189496133E-01   0.0000000000E+00   0.0000000000E+00   0.0000000000E+00   0.0000000000E+00   0.0000000000E+00   0.0000000000E+00   0.1183824714E+01   0.5342449219E-12   0.5342056971E-12  -0.1138882971E-15   0.4747551797E-16   0.2279604169E-15
   0.2108382568E+01   0.0000000000E+00   0.1195618905E-16  -0.2000000000E-01   0.0000000000E+00   0.1113466637E-16   0.1283825684E+00   0.0000000000E+00   0.8215226849E-18   0.0000000000E+00   0.0000000000E+00   0.0000000000E+00   0.0000000000E+00   0.0000000000E+00   0.0000000000E+00   0.1183824715E+01   0.5197102629E-12   0.5197309569E-12   0.3216107689E-16   0.3015008300E-16  -0.8660207765E-16
   0.2108382568E+01   0.9731016620E+00   0.8755029713E-18  -0.2000000000E-01   0.4996623355E-02  -0.1888376339E-16   0.1283825684E+00  -0.3189496133E-01   0.1975926636E-16   0.0000000000E+00   0.0000000000E+00   0.0000000000E+00   0.0000000000E+00   0.0000000000E+00   0.0000000000E+00   0.1183824714E+01   0.5247744478E-12   0.5248053182E-12  -0.1453158251E-15   0.1601782460E-15   0.2759094770E-16
   0.2108382568E+01   0.0000000000E+00   0.9731016620E+00  -0.2000000000E-01   0.0000000000E+00   0.4996623355E-02   0.1283825684E+00   0.0000000000E+00  -0.3189496133E-01   0.0000000000E+00   0.0000000000E+00   0.0000000000E+00   0.0000000000E+00   0.0000000000E+00   0.0000000000E+00   0.1183824714E+01   0.5458170268E-12   0.5457397883E-12   0.8362668925E-16   0.1391954407E-15  -0.3960846896E-16
   0.2108382568E+01   0.9731016620E+00   0.9731016620E+00  -0.2000000000E-01   0.4996623355E-02   0.4996623355E-02   0.1283825684E+00  -0.3189496133E-01  -0.3189496133E-01   0.0000000000E+00   0.0000000000E+00   0.0000000000E+00   0.0000000000E+00   0.0000000000E+00   0.0000000000E+00   0.1183824714E+01   0.5302063584E-12   0.5301392961E-12   0.1151564994E-15  -0.6938934054E-16   0.1896285222E-15
     1     2     3     4     5     6     7     8
     2     9    10     3     6    11    12     7
 VARIABLES = X,Y,Z,DU1,DU2,DU3,U1,U2,U3,e11,e22,e33,e12,e13,e23,S11,S22,S33,S12,S13,S23
 ZONE, T="0.2779D+01" F=FEPOINT, I=   12 J=    2 ET=BRICK
   0.0000000000E+00   0.0000000000E+00   0.0000000000E+00   0.0000000000E+00   0.0000000000E+00   0.0000000000E+00   0.0000000000E+00   0.0000000000E+00   0.0000000000E+00   0.0000000000E+00   0.0000000000E+00   0.0000000000E+00   0.0000000000E+00   0.0000000000E+00   0.0000000000E+00   0.1159863351E+01   0.1522341139E-11   0.1522189045E-11  -0.7496847342E-17   0.4691866278E-16   0.5727530444E-18
   0.1044191284E+01   0.0000000000E+00   0.4977589303E-17  -0.1000000000E-01   0.0000000000E+00   0.2118473980E-17   0.5419128418E-01   0.0000000000E+00   0.2859115323E-17   0.0000000000E+00   0.0000000000E+00   0.0000000000E+00   0.0000000000E+00   0.0000000000E+00   0.0000000000E+00   0.1159863351E+01   0.1506270667E-11   0.1506086106E-11  -0.1214372968E-16   0.8584894769E-16  -0.6513985057E-16
   0.1044191284E+01   0.9780976685E+00  -0.3689256155E-17  -0.1000000000E-01   0.4996006439E-02  -0.4920112773E-17   0.5419128418E-01  -0.2689833797E-01   0.1230856618E-17   0.0000000000E+00   0.0000000000E+00   0.0000000000E+00   0.0000000000E+00   0.0000000000E+00   0.0000000000E+00   0.1159863351E+01   0.1524722549E-11   0.1524892973E-11   0.2363740345E-16  -0.1283901387E-15  -0.5704469114E-16
   0.0000000000E+00   0.9780976685E+00   0.8702466155E-18   0.0000000000E+00   0.4996006439E-02   0.8428154353E-17   0.0000000000E+00  -0.2689833797E-01  -0.7557907737E-17   0.0000000000E+00   0.0000000000E+00   0.0000000000E+00   0.0000000000E+00   0.0000000000E+00   0.0000000000E+00   0.1159863351E+01   0.1514703650E-11   0.1514723895E-11  -0.2181541619E-15   0.3490896530E-16  -0.8775279714E-16
   0.0000000000E+00   0.0000000000E+00   0.9780976685E+00   0.0000000000E+00   0.0000000000E+00   0.4996006439E-02   0.0000000000E+00   0.0000000000E+00  -0.2689833797E-01   0.0000000000E+00   0.0000000000E+00   0.0000000000E+00   0.0000000000E+00   0.0000000000E+00   0.0000000000E+00   0.1159863351E+01   0.1519863401E-11   0.1519977494E-11   0.1518847802E-16  -0.3101080176E-16   0.3842232305E-16
   0.1044191284E+01   0.0000000000E+00   0.9780976685E+00  -0.1000000000E-01   0.0000000000E+00   0.4996006439E-02   0.5419128418E-01   0.0000000000E+00  -0.2689833797E-01   0.0000000000E+00   0.0000000000E+00   0.0000000000E+00   0.0000000000E+00   0.0000000000E+00   0.0000000000E+00   0.1159863351E+01   0.1514786338E-11   0.1514635286E-11  -0.1840065944E-15   0.8972329772E-16   0.1365996607E-15
   0.1044191284E+01   0.9780976685E+00   0.9780976685E+00  -0.1000000000E-01   0.4996006439E-02   0.4996006439E-02   0.5419128418E-01  -0.2689833797E-01  -0.2689833797E-01   0.0000000000E+00   0.0000000000E+00   0.0000000000E+00   0.0000000000E+00   0.0000000000E+00   0.0000000000E+00   0.1159863351E+01   0.1512455021E-11   0.1512658858E-11  -0.2289687687E-15  -0.1207388613E-15   0.1375992462E-15
   0.0000000000E+00   0.9780976685E+00   0.9780976685E+00   0.0000000000E+00   0.4996006439E-02   0.4996006439E-02   0.0000000000E+00  -0.2689833797E-01  -0.2689833797E-01   0.0000000000E+00   0.0000000000E+00   0.0000000000E+00   0.0000000000E+00   0.0000000000E+00   0.0000000000E+00   0.1159863351E+01   0.1522617536E-11   0.1522903991E-11   0.2291110384E-15   0.2449573835E-16  -0.1345747619E-15
   0.2088382568E+01   0.0000000000E+00  -0.4611617432E-18  -0.2000000000E-01   0.0000000000E+00  -0.1241735080E-16   0.1083825684E+00   0.0000000000E+00   0.1195618905E-16   0.0000000000E+00   0.0000000000E+00   0.0000000000E+00   0.0000000000E+00   0.0000000000E+00   0.0000000000E+00   0.1159863351E+01   0.1514956543E-11   0.1514883531E-11  -0.2192181764E-17  -0.6139392822E-16  -0.5173643370E-16
   0.2088382568E+01   0.9780976685E+00  -0.8825710700E-17  -0.2000000000E-01   0.4996006439E-02  -0.9701213671E-17   0.1083825684E+00  -0.2689833797E-01   0.8755029713E-18   0.0000000000E+00   0.0000000000E+00   0.0000000000E+00   0.0000000000E+00   0.0000000000E+00   0.0000000000E+00   0.1159863351E+01   0.1538747915E-11   0.1538847318E-11   0.8082432851E-16   0.1750208036E-15  -0.1619028181E-15
   0.2088382568E+01   0.0000000000E+00   0.9780976685E+00  -0.2000000000E-01   0.0000000000E+00   0.4996006439E-02   0.1083825684E+00   0.0000000000E+00  -0.2689833797E-01   0.0000000000E+00   0.0000000000E+00   0.0000000000E+00   0.0000000000E+00   0.0000000000E+00   0.0000000000E+00   0.1159863351E+01   0.1523941610E-11   0.1523851869E-11   0.1725670550E-16  -0.3188666607E-15  -0.1542097737E-16
   0.2088382568E+01   0.9780976685E+00   0.9780976685E+00  -0.2000000000E-01   0.4996006439E-02   0.4996006439E-02   0.1083825684E+00  -0.2689833797E-01  -0.2689833797E-01   0.0000000000E+00   0.0000000000E+00   0.0000000000E+00   0.0000000000E+00   0.0000000000E+00   0.0000000000E+00   0.1159863350E+01   0.1495458488E-11   0.1495541088E-11   0.3818736723E-16   0.3469638343E-15   0.2892765621E-16
     1     2     3     4     5     6     7     8
     2     9    10     3     6    11    12     7
 VARIABLES = X,Y,Z,DU1,DU2,DU3,U1,U2,U3,e11,e22,e33,e12,e13,e23,S11,S22,S33,S12,S13,S23
 ZONE, T="0.2829D+01" F=FEPOINT, I=   12 J=    2 ET=BRICK
   0.0000000000E+00   0.0000000000E+00   0.0000000000E+00   0.0000000000E+00   0.0000000000E+00   0.0000000000E+00   0.0000000000E+00   0.0000000000E+00   0.0000000000E+00   0.0000000000E+00   0.0000000000E+00   0.0000000000E+00   0.0000000000E+00   0.0000000000E+00   0.0000000000E+00   0.1130398864E+01   0.5448421998E-11   0.5448413075E-11   0.1777783312E-16  -0.9618006946E-16  -0.3150386979E-16
   0.1034191284E+01   0.0000000000E+00  -0.3052092867E-17  -0.1000000000E-01   0.0000000000E+00  -0.8029682170E-17   0.4419128418E-01   0.0000000000E+00   0.4977589303E-17   0.0000000000E+00   0.0000000000E+00   0.0000000000E+00   0.0000000000E+00   0.0000000000E+00   0.0000000000E+00   0.1130398864E+01   0.5452907866E-11   0.5452841412E-11  -0.4848663808E-16   0.1051432067E-15   0.4006733376E-16
   0.1034191284E+01   0.9830927577E+00   0.2185553412E-17  -0.1000000000E-01   0.4995089252E-02   0.5874809567E-17   0.4419128418E-01  -0.2190233153E-01  -0.3689256155E-17   0.0000000000E+00   0.0000000000E+00   0.0000000000E+00   0.0000000000E+00   0.0000000000E+00   0.0000000000E+00   0.1130398864E+01   0.5473839678E-11   0.5473773200E-11   0.5222891131E-17  -0.4356260593E-16  -0.2357731737E-16
   0.0000000000E+00   0.9830927577E+00   0.1008929978E-17   0.0000000000E+00   0.4995089252E-02   0.1386833622E-18   0.0000000000E+00  -0.2190233153E-01   0.8702466155E-18   0.0000000000E+00   0.0000000000E+00   0.0000000000E+00   0.0000000000E+00   0.0000000000E+00   0.0000000000E+00   0.1130398864E+01   0.5469254081E-11   0.5469245195E-11  -0.3178592144E-16   0.7547572914E-16   0.3092536871E-18
   0.0000000000E+00   0.0000000000E+00   0.9830927577E+00   0.0000000000E+00   0.0000000000E+00   0.4995089252E-02   0.0000000000E+00   0.0000000000E+00  -0.2190233153E-01   0.0000000000E+00   0.0000000000E+00   0.0000000000E+00   0.0000000000E+00   0.0000000000E+00   0.0000000000E+00   0.1130398864E+01   0.5478301206E-11   0.5478425275E-11  -0.1561723274E-16  -0.3241331988E-16   0.1459001895E-15
   0.1034191284E+01   0.0000000000E+00   0.9830927577E+00  -0.1000000000E-01   0.0000000000E+00   0.4995089252E-02   0.4419128418E-01   0.0000000000E+00  -0.2190233153E-01   0.0000000000E+00   0.0000000000E+00   0.0000000000E+00   0.0000000000E+00   0.0000000000E+00   0.0000000000E+00   0.1130398864E+01   0.5473773200E-11   0.5473839678E-11   0.5257683417E-16   0.2298063039E-17   0.3988143555E-16
   0.1034191284E+01   0.9830927577E+00   0.9830927577E+00  -0.1000000000E-01   0.4995089252E-02   0.4995089252E-02   0.4419128418E-01  -0.2190233153E-01  -0.2190233153E-01   0.0000000000E+00   0.0000000000E+00   0.0000000000E+00   0.0000000000E+00   0.0000000000E+00   0.0000000000E+00   0.1130398864E+01   0.5452841411E-11   0.5452907865E-11  -0.1071415741E-15  -0.4997078718E-16  -0.9318584529E-16
   0.0000000000E+00   0.9830927577E+00   0.9830927577E+00   0.0000000000E+00   0.4995089252E-02   0.4995089252E-02   0.0000000000E+00  -0.2190233153E-01  -0.2190233153E-01   0.0000000000E+00   0.0000000000E+00   0.0000000000E+00   0.0000000000E+00   0.0000000000E+00   0.0000000000E+00   0.1130398864E+01   0.5457269749E-11   0.5457393733E-11   0.2182618654E-16   0.1454858826E-16  -0.7945683673E-16
   0.2068382568E+01   0.0000000000E+00  -0.5270334642E-18  -0.2000000000E-01   0.0000000000E+00  -0.6587172092E-19   0.8838256836E-01   0.0000000000E+00  -0.4611617432E-18   0.0000000000E+00   0.0000000000E+00   0.0000000000E+00   0.0000000000E+00   0.0000000000E+00   0.0000000000E+00   0.1130398864E+01   0.5457393734E-11   0.5457269750E-11   0.9761836312E-16   0.1567866102E-16   0.3934078142E-16
   0.2068382568E+01   0.9830927577E+00   0.5943970389E-17  -0.2000000000E-01   0.4995089252E-02   0.1476968109E-16   0.8838256836E-01  -0.2190233153E-01  -0.8825710700E-17   0.0000000000E+00   0.0000000000E+00   0.0000000000E+00   0.0000000000E+00   0.0000000000E+00   0.0000000000E+00   0.1130398864E+01   0.5478425275E-11   0.5478301206E-11   0.1023453318E-16   0.1012855506E-16   0.1661705554E-16
   0.2068382568E+01   0.0000000000E+00   0.9830927577E+00  -0.2000000000E-01   0.0000000000E+00   0.4995089252E-02   0.8838256836E-01   0.0000000000E+00  -0.2190233153E-01   0.0000000000E+00   0.0000000000E+00   0.0000000000E+00   0.0000000000E+00   0.0000000000E+00   0.0000000000E+00   0.1130398864E+01   0.5469245194E-11   0.5469254080E-11  -0.1234904995E-15  -0.2770917975E-16   0.2942173354E-16
   0.2068382568E+01   0.9830927577E+00   0.9830927577E+00  -0.2000000000E-01   0.4995089252E-02   0.4995089252E-02   0.8838256836E-01  -0.2190233153E-01  -0.2190233153E-01   0.0000000000E+00   0.0000000000E+00   0.0000000000E+00   0.0000000000E+00   0.0000000000E+00   0.0000000000E+00   0.1130398864E+01   0.5448413073E-11   0.5448421996E-11   0.2303022230E-16  -0.2335717260E-17  -0.4789835971E-16
     1     2     3     4     5     6     7     8
     2     9    10     3     6    11    12     7
 VARIABLES = X,Y,Z,DU1,DU2,DU3,U1,U2,U3,e11,e22,e33,e12,e13,e23,S11,S22,S33,S12,S13,S23
 ZONE, T="0.2879D+01" F=FEPOINT, I=   12 J=    2 ET=BRICK
   0.0000000000E+00   0.0000000000E+00   0.0000000000E+00   0.0000000000E+00   0.0000000000E+00   0.0000000000E+00   0.0000000000E+00   0.0000000000E+00   0.0000000000E+00   0.0000000000E+00   0.0000000000E+00   0.0000000000E+00   0.0000000000E+00   0.0000000000E+00   0.0000000000E+00   0.1091811235E+01   0.2904501656E-10   0.2904503754E-10  -0.2928160247E-17   0.1234519178E-15   0.1879030038E-16
   0.1024191284E+01   0.0000000000E+00   0.2935471337E-17  -0.1000000000E-01   0.0000000000E+00   0.5987564205E-17   0.3419128418E-01   0.0000000000E+00  -0.3052092867E-17   0.0000000000E+00   0.0000000000E+00   0.0000000000E+00   0.0000000000E+00   0.0000000000E+00   0.0000000000E+00   0.1091811235E+01   0.2905243540E-10   0.2905236022E-10   0.3978676557E-16  -0.2059001205E-15   0.6252039081E-16
   0.1024191284E+01   0.9880863264E+00   0.6208431006E-17  -0.1000000000E-01   0.4993568728E-02   0.4022877594E-17   0.3419128418E-01  -0.1690724228E-01   0.2185553412E-17   0.0000000000E+00   0.0000000000E+00   0.0000000000E+00   0.0000000000E+00   0.0000000000E+00   0.0000000000E+00   0.1091811235E+01   0.2905603532E-10   0.2905585264E-10   0.3061811975E-16   0.8244420002E-16  -0.5848715406E-16
   0.0000000000E+00   0.9880863264E+00   0.2278313214E-17   0.0000000000E+00   0.4993568728E-02   0.1269383236E-17   0.0000000000E+00  -0.1690724228E-01   0.1008929978E-17   0.0000000000E+00   0.0000000000E+00   0.0000000000E+00   0.0000000000E+00   0.0000000000E+00   0.0000000000E+00   0.1091811235E+01   0.2905581292E-10   0.2905561506E-10   0.1630236231E-15   0.1297626196E-16   0.1801084309E-15
   0.0000000000E+00   0.0000000000E+00   0.9880863264E+00   0.0000000000E+00   0.0000000000E+00   0.4993568728E-02   0.0000000000E+00   0.0000000000E+00  -0.1690724228E-01   0.0000000000E+00   0.0000000000E+00   0.0000000000E+00   0.0000000000E+00   0.0000000000E+00   0.0000000000E+00   0.1091811235E+01   0.2904765780E-10   0.2904768486E-10   0.1949633401E-16  -0.3582262098E-16  -0.5740212065E-16
   0.1024191284E+01   0.0000000000E+00   0.9880863264E+00  -0.1000000000E-01   0.0000000000E+00   0.4993568728E-02   0.3419128418E-01   0.0000000000E+00  -0.1690724228E-01   0.0000000000E+00   0.0000000000E+00   0.0000000000E+00   0.0000000000E+00   0.0000000000E+00   0.0000000000E+00   0.1091811235E+01   0.2904481632E-10   0.2904500152E-10  -0.1325888203E-18  -0.6672451743E-16   0.8083616439E-17
   0.1024191284E+01   0.9880863264E+00   0.9880863264E+00  -0.1000000000E-01   0.4993568728E-02   0.4993568728E-02   0.3419128418E-01  -0.1690724228E-01  -0.1690724228E-01   0.0000000000E+00   0.0000000000E+00   0.0000000000E+00   0.0000000000E+00   0.0000000000E+00   0.0000000000E+00   0.1091811234E+01   0.2904321207E-10   0.2904328984E-10   0.4279733058E-16  -0.5726533919E-16  -0.4559089094E-16
   0.0000000000E+00   0.9880863264E+00   0.9880863264E+00   0.0000000000E+00   0.4993568728E-02   0.4993568728E-02   0.0000000000E+00  -0.1690724228E-01  -0.1690724228E-01   0.0000000000E+00   0.0000000000E+00   0.0000000000E+00   0.0000000000E+00   0.0000000000E+00   0.0000000000E+00   0.1091811234E+01   0.2904525759E-10   0.2904506572E-10  -0.1532332858E-15   0.1525616368E-15  -0.8452698276E-18
   0.2048382568E+01   0.0000000000E+00   0.8687377796E-17  -0.2000000000E-01   0.0000000000E+00   0.9214411260E-17   0.6838256836E-01   0.0000000000E+00  -0.5270334642E-18   0.0000000000E+00   0.0000000000E+00   0.0000000000E+00   0.0000000000E+00   0.0000000000E+00   0.0000000000E+00   0.1091811235E+01   0.2904750770E-10   0.2904727883E-10  -0.2190657836E-17   0.1940701682E-15   0.3713952985E-16
   0.2048382568E+01   0.9880863264E+00   0.9827706689E-17  -0.2000000000E-01   0.4993568728E-02   0.3883736300E-17   0.6838256836E-01  -0.1690724228E-01   0.5943970389E-17   0.0000000000E+00   0.0000000000E+00   0.0000000000E+00   0.0000000000E+00   0.0000000000E+00   0.0000000000E+00   0.1091811235E+01   0.2904911544E-10   0.2904904780E-10  -0.1710970721E-15   0.1928791386E-15  -0.1602176563E-15
   0.2048382568E+01   0.0000000000E+00   0.9880863264E+00  -0.2000000000E-01   0.0000000000E+00   0.4993568728E-02   0.6838256836E-01   0.0000000000E+00  -0.1690724228E-01   0.0000000000E+00   0.0000000000E+00   0.0000000000E+00   0.0000000000E+00   0.0000000000E+00   0.0000000000E+00   0.1091811235E+01   0.2904019408E-10   0.2904016516E-10  -0.3989191799E-16  -0.9600283909E-16   0.1760287497E-15
   0.2048382568E+01   0.9880863264E+00   0.9880863264E+00  -0.2000000000E-01   0.4993568728E-02   0.4993568728E-02   0.6838256836E-01  -0.1690724228E-01  -0.1690724228E-01   0.0000000000E+00   0.0000000000E+00   0.0000000000E+00   0.0000000000E+00   0.0000000000E+00   0.0000000000E+00   0.1091811234E+01   0.2904459005E-10   0.2904472231E-10  -0.5979427955E-16  -0.9349587637E-16  -0.1188980606E-16
     1     2     3     4     5     6     7     8
     2     9    10     3     6    11    12     7
 VARIABLES = X,Y,Z,DU1,DU2,DU3,U1,U2,U3,e11,e22,e33,e12,e13,e23,S11,S22,S33,S12,S13,S23
 ZONE, T="0.2929D+01" F=FEPOINT, I=   12 J=    2 ET=BRICK
   0.0000000000E+00   0.0000000000E+00   0.0000000000E+00   0.0000000000E+00   0.0000000000E+00   0.0000000000E+00   0.0000000000E+00   0.0000000000E+00   0.0000000000E+00   0.0000000000E+00   0.0000000000E+00   0.0000000000E+00   0.0000000000E+00   0.0000000000E+00   0.0000000000E+00   0.1034782030E+01   0.3289742356E-09   0.3289743843E-09  -0.2979369692E-16  -0.2102485754E-16  -0.3149108344E-16
   0.1014191284E+01   0.0000000000E+00   0.1123440513E-17  -0.1000000000E-01   0.0000000000E+00  -0.1812030824E-17   0.2419128418E-01   0.0000000000E+00   0.2935471337E-17   0.0000000000E+00   0.0000000000E+00   0.0000000000E+00   0.0000000000E+00   0.0000000000E+00   0.0000000000E+00   0.1034782030E+01   0.3289676629E-09   0.3289676502E-09  -0.5467040423E-16   0.5581403354E-17   0.3112911071E-16
   0.1014191284E+01   0.9930768216E+00   0.9461540468E-18  -0.1000000000E-01   0.4990495133E-02  -0.5262276960E-17   0.2419128418E-01  -0.1191367355E-01   0.6208431006E-17   0.0000000000E+00   0.0000000000E+00   0.0000000000E+00   0.0000000000E+00   0.0000000000E+00   0.0000000000E+00   0.1034782030E+01   0.3289660636E-09   0.3289660006E-09  -0.2168417364E-15   0.1673657421E-15  -0.4636227830E-16
   0.0000000000E+00   0.9930768216E+00   0.2266370127E-17   0.0000000000E+00   0.4990495133E-02  -0.1194308717E-19   0.0000000000E+00  -0.1191367355E-01   0.2278313214E-17   0.0000000000E+00   0.0000000000E+00   0.0000000000E+00   0.0000000000E+00   0.0000000000E+00   0.0000000000E+00   0.1034782030E+01   0.3289682685E-09   0.3289682682E-09   0.1004544819E-16  -0.1826073843E-15   0.2033730817E-15
   0.0000000000E+00   0.0000000000E+00   0.9930768216E+00   0.0000000000E+00   0.0000000000E+00   0.4990495133E-02   0.0000000000E+00   0.0000000000E+00  -0.1191367355E-01   0.0000000000E+00   0.0000000000E+00   0.0000000000E+00   0.0000000000E+00   0.0000000000E+00   0.0000000000E+00   0.1034782030E+01   0.3289631780E-09   0.3289633168E-09   0.2935233943E-16   0.4372980119E-16   0.1305658157E-16
   0.1014191284E+01   0.0000000000E+00   0.9930768216E+00  -0.1000000000E-01   0.0000000000E+00   0.4990495133E-02   0.2419128418E-01   0.0000000000E+00  -0.1191367355E-01   0.0000000000E+00   0.0000000000E+00   0.0000000000E+00   0.0000000000E+00   0.0000000000E+00   0.0000000000E+00   0.1034782030E+01   0.3289661507E-09   0.3289661110E-09   0.3556118297E-17  -0.8271691767E-16  -0.9657176022E-16
   0.1014191284E+01   0.9930768216E+00   0.9930768216E+00  -0.1000000000E-01   0.4990495133E-02   0.4990495133E-02   0.2419128418E-01  -0.1191367355E-01  -0.1191367355E-01   0.0000000000E+00   0.0000000000E+00   0.0000000000E+00   0.0000000000E+00   0.0000000000E+00   0.0000000000E+00   0.1034782030E+01   0.3289672638E-09   0.3289671739E-09   0.7641665907E-16   0.1139563789E-15   0.2033030205E-15
   0.0000000000E+00   0.9930768216E+00   0.9930768216E+00   0.0000000000E+00   0.4990495133E-02   0.4990495133E-02   0.0000000000E+00  -0.1191367355E-01  -0.1191367355E-01   0.0000000000E+00   0.0000000000E+00   0.0000000000E+00   0.0000000000E+00   0.0000000000E+00   0.0000000000E+00   0.1034782030E+01   0.3289714672E-09   0.3289714570E-09   0.5181644379E-16   0.1101614718E-16  -0.3015859010E-15
   0.2028382568E+01   0.0000000000E+00   0.2858201361E-17  -0.2000000000E-01   0.0000000000E+00  -0.5829176435E-17   0.4838256836E-01   0.0000000000E+00   0.8687377796E-17   0.0000000000E+00   0.0000000000E+00   0.0000000000E+00   0.0000000000E+00   0.0000000000E+00   0.0000000000E+00   0.1034782030E+01   0.3289630759E-09   0.3289628947E-09  -0.5190503598E-16   0.4092769644E-16  -0.4402360419E-16
   0.2028382568E+01   0.9930768216E+00   0.1896295359E-17  -0.2000000000E-01   0.4990495133E-02  -0.7931411329E-17   0.4838256836E-01  -0.1191367355E-01   0.9827706689E-17   0.0000000000E+00   0.0000000000E+00   0.0000000000E+00   0.0000000000E+00   0.0000000000E+00   0.0000000000E+00   0.1034782030E+01   0.3289685398E-09   0.3289685345E-09   0.9370054732E-16   0.4708400935E-16  -0.7565665611E-16
   0.2028382568E+01   0.0000000000E+00   0.9930768216E+00  -0.2000000000E-01   0.0000000000E+00   0.4990495133E-02   0.4838256836E-01   0.0000000000E+00  -0.1191367355E-01   0.0000000000E+00   0.0000000000E+00   0.0000000000E+00   0.0000000000E+00   0.0000000000E+00   0.0000000000E+00   0.1034782030E+01   0.3289658709E-09   0.3289659006E-09  -0.2874938767E-17  -0.1852648516E-15  -0.1363835029E-16
   0.2028382568E+01   0.9930768216E+00   0.9930768216E+00  -0.2000000000E-01   0.4990495133E-02   0.4990495133E-02   0.4838256836E-01  -0.1191367355E-01  -0.1191367355E-01   0.0000000000E+00   0.0000000000E+00   0.0000000000E+00   0.0000000000E+00   0.0000000000E+00   0.0000000000E+00   0.1034782030E+01   0.3289620617E-09   0.3289622673E-09  -0.1981200728E-15  -0.1967850205E-15  -0.1249661279E-15
     1     2     3     4     5     6     7     8
     2     9    10     3     6    11    12     7
 VARIABLES = X,Y,Z,DU1,DU2,DU3,U1,U2,U3,e11,e22,e33,e12,e13,e23,S11,S22,S33,S12,S13,S23
 ZONE, T="0.2979D+01" F=FEPOINT, I=   12 J=    2 ET=BRICK
   0.0000000000E+00   0.0000000000E+00   0.0000000000E+00   0.0000000000E+00   0.0000000000E+00   0.0000000000E+00   0.0000000000E+00   0.0000000000E+00   0.0000000000E+00   0.0000000000E+00   0.0000000000E+00   0.0000000000E+00   0.0000000000E+00   0.0000000000E+00   0.0000000000E+00   0.7585656864E+00  -0.4853884722E-14  -0.4525586399E-14  -0.4556378355E-16  -0.2415138018E-16   0.2051846657E-16
   0.1004191284E+01   0.0000000000E+00   0.9162079018E-18  -0.1000000000E-01   0.0000000000E+00  -0.2072326115E-18   0.1419128418E-01   0.0000000000E+00   0.1123440513E-17   0.0000000000E+00   0.0000000000E+00   0.0000000000E+00   0.0000000000E+00   0.0000000000E+00   0.0000000000E+00   0.7585656864E+00   0.2207545122E-14   0.1920970104E-14   0.2893814181E-15   0.2881675182E-15  -0.1052133848E-15
   0.1004191284E+01   0.9980307855E+00  -0.4158032114E-18  -0.1000000000E-01   0.4953963943E-02  -0.1361957258E-17   0.1419128418E-01  -0.6923178418E-02   0.9461540468E-18   0.0000000000E+00   0.0000000000E+00   0.0000000000E+00   0.0000000000E+00   0.0000000000E+00   0.0000000000E+00   0.7585656863E+00   0.5162844338E-14   0.5002671992E-14   0.2523873864E-15  -0.5551315257E-15   0.4420180253E-16
   0.0000000000E+00   0.9980307855E+00  -0.2087996726E-18   0.0000000000E+00   0.4953963943E-02  -0.2475169800E-17   0.0000000000E+00  -0.6923178418E-02   0.2266370127E-17   0.0000000000E+00   0.0000000000E+00   0.0000000000E+00   0.0000000000E+00   0.0000000000E+00   0.0000000000E+00   0.7585656863E+00   0.5526786539E-14   0.5573028986E-14   0.5306732736E-16   0.1708199687E-15   0.1026114311E-15
   0.0000000000E+00   0.0000000000E+00   0.9980307855E+00   0.0000000000E+00   0.0000000000E+00   0.4953963943E-02   0.0000000000E+00   0.0000000000E+00  -0.6923178418E-02   0.0000000000E+00   0.0000000000E+00   0.0000000000E+00   0.0000000000E+00   0.0000000000E+00   0.0000000000E+00   0.7585656863E+00   0.6827205509E-14   0.6839595652E-14   0.5583158885E-16  -0.1492862527E-15  -0.3575427393E-16
   0.1004191284E+01   0.0000000000E+00   0.9980307855E+00  -0.1000000000E-01   0.0000000000E+00   0.4953963943E-02   0.1419128418E-01   0.0000000000E+00  -0.6923178418E-02   0.0000000000E+00   0.0000000000E+00   0.0000000000E+00   0.0000000000E+00   0.0000000000E+00   0.0000000000E+00   0.7585656863E+00   0.1001160150E-14   0.9086924157E-15  -0.5978871471E-15   0.5302326312E-15  -0.5982913823E-16
   0.1004191284E+01   0.9980307855E+00   0.9980307855E+00  -0.1000000000E-01   0.4953963943E-02   0.4953963943E-02   0.1419128418E-01  -0.6923178418E-02  -0.6923178418E-02   0.0000000000E+00   0.0000000000E+00   0.0000000000E+00   0.0000000000E+00   0.0000000000E+00   0.0000000000E+00   0.7585656862E+00   0.1485723901E-14   0.1519547761E-14  -0.3228517439E-15  -0.4673099537E-15   0.1232888643E-15
   0.0000000000E+00   0.9980307855E+00   0.9980307855E+00   0.0000000000E+00   0.4953963943E-02   0.4953963943E-02   0.0000000000E+00  -0.6923178418E-02  -0.6923178418E-02   0.0000000000E+00   0.0000000000E+00   0.0000000000E+00   0.0000000000E+00   0.0000000000E+00   0.0000000000E+00   0.7585656862E+00  -0.4274093809E-14  -0.4543755554E-14  -0.1228965831E-15  -0.7743925317E-16  -0.2801858153E-15
   0.2008382568E+01   0.0000000000E+00  -0.2622128187E-18  -0.2000000000E-01   0.0000000000E+00  -0.3120414180E-17   0.2838256836E-01   0.0000000000E+00   0.2858201361E-17   0.0000000000E+00   0.0000000000E+00   0.0000000000E+00   0.0000000000E+00   0.0000000000E+00   0.0000000000E+00   0.7585656864E+00   0.6198443309E-14   0.6122906019E-14  -0.4976599462E-17   0.1053519862E-14   0.1400895707E-15
   0.2008382568E+01   0.9980307855E+00   0.3366983822E-18  -0.2000000000E-01   0.4953963943E-02  -0.1559596977E-17   0.2838256836E-01  -0.6923178418E-02   0.1896295359E-17   0.0000000000E+00   0.0000000000E+00   0.0000000000E+00   0.0000000000E+00   0.0000000000E+00   0.0000000000E+00   0.7585656863E+00  -0.6728151360E-15  -0.5340950567E-15   0.1067567521E-15  -0.1595704674E-15  -0.2966777947E-15
   0.2008382568E+01   0.0000000000E+00   0.9980307855E+00  -0.2000000000E-01   0.0000000000E+00   0.4953963943E-02   0.2838256836E-01   0.0000000000E+00  -0.6923178418E-02   0.0000000000E+00   0.0000000000E+00   0.0000000000E+00   0.0000000000E+00   0.0000000000E+00   0.0000000000E+00   0.7585656863E+00   0.6541088869E-15   0.3213271047E-15  -0.1146851864E-15  -0.1718970640E-15   0.2043467669E-15
   0.2008382568E+01   0.9980307855E+00   0.9980307855E+00  -0.2000000000E-01   0.4953963943E-02   0.4953963943E-02   0.2838256836E-01  -0.6923178418E-02  -0.6923178418E-02   0.0000000000E+00   0.0000000000E+00   0.0000000000E+00   0.0000000000E+00   0.0000000000E+00   0.0000000000E+00   0.7585656862E+00   0.1013110081E-13   0.1001263194E-13  -0.2068129244E-16   0.1465482401E-15   0.1268247224E-15
     1     2     3     4     5     6     7     8
     2     9    10     3     6    11    12     7
 VARIABLES = X,Y,Z,DU1,DU2,DU3,U1,U2,U3,e11,e22,e33,e12,e13,e23,S11,S22,S33,S12,S13,S23
 ZONE, T="0.3029D+01" F=FEPOINT, I=   12 J=    2 ET=BRICK
   0.0000000000E+00   0.0000000000E+00   0.0000000000E+00   0.0000000000E+00   0.0000000000E+00   0.0000000000E+00   0.0000000000E+00   0.0000000000E+00   0.0000000000E+00   0.0000000000E+00   0.0000000000E+00   0.0000000000E+00   0.0000000000E+00   0.0000000000E+00   0.0000000000E+00   0.8663644640E+00   0.2799227503E-12   0.2799946406E-12   0.8812508817E-17   0.2994747134E-17  -0.2352038150E-17
   0.1005808716E+01   0.0000000000E+00   0.1072883316E-18   0.1617431641E-02   0.0000000000E+00  -0.8089195702E-18   0.4191284180E-02   0.0000000000E+00   0.9162079018E-18   0.0000000000E+00   0.0000000000E+00   0.0000000000E+00   0.0000000000E+00   0.0000000000E+00   0.0000000000E+00   0.8663644640E+00   0.2795313252E-12   0.2795773354E-12  -0.9747228217E-16  -0.6722060955E-16  -0.2184786888E-16
   0.1005808716E+01   0.9972400362E+00  -0.7978655938E-19   0.1617431641E-02  -0.7907493574E-03   0.3360166521E-18   0.4191284180E-02  -0.1969214476E-02  -0.4158032114E-18   0.0000000000E+00   0.0000000000E+00   0.0000000000E+00   0.0000000000E+00   0.0000000000E+00   0.0000000000E+00   0.8663644639E+00   0.2800064502E-12   0.2800283646E-12  -0.6730513985E-17   0.3574209193E-16   0.1045465191E-16
   0.0000000000E+00   0.9972400362E+00  -0.4367600783E-18   0.0000000000E+00  -0.7907493574E-03  -0.2279604057E-18   0.0000000000E+00  -0.1969214476E-02  -0.2087996726E-18   0.0000000000E+00   0.0000000000E+00   0.0000000000E+00   0.0000000000E+00   0.0000000000E+00   0.0000000000E+00   0.8663644639E+00   0.2791244735E-12   0.2791426684E-12   0.3543029266E-16  -0.5400773800E-17  -0.3216854171E-17
   0.0000000000E+00   0.0000000000E+00   0.9972400362E+00   0.0000000000E+00   0.0000000000E+00  -0.7907493574E-03   0.0000000000E+00   0.0000000000E+00  -0.1969214476E-02   0.0000000000E+00   0.0000000000E+00   0.0000000000E+00   0.0000000000E+00   0.0000000000E+00   0.0000000000E+00   0.8663644639E+00   0.2809742658E-12   0.2809531264E-12  -0.1884786852E-16   0.5522960687E-16  -0.9348091706E-17
   0.1005808716E+01   0.0000000000E+00   0.9972400362E+00   0.1617431641E-02   0.0000000000E+00  -0.7907493574E-03   0.4191284180E-02   0.0000000000E+00  -0.1969214476E-02   0.0000000000E+00   0.0000000000E+00   0.0000000000E+00   0.0000000000E+00   0.0000000000E+00   0.0000000000E+00   0.8663644639E+00   0.2804338789E-12   0.2803900501E-12   0.2401541627E-16  -0.3497933916E-16  -0.2168787033E-16
   0.1005808716E+01   0.9972400362E+00   0.9972400362E+00   0.1617431641E-02  -0.7907493574E-03  -0.7907493574E-03   0.4191284180E-02  -0.1969214476E-02  -0.1969214476E-02   0.0000000000E+00   0.0000000000E+00   0.0000000000E+00   0.0000000000E+00   0.0000000000E+00   0.0000000000E+00   0.8663644638E+00   0.2810228747E-12   0.2809549501E-12  -0.1013291745E-16   0.1909611392E-16  -0.1845356525E-16
   0.0000000000E+00   0.9972400362E+00   0.9972400362E+00   0.0000000000E+00  -0.7907493574E-03  -0.7907493574E-03   0.0000000000E+00  -0.1969214476E-02  -0.1969214476E-02   0.0000000000E+00   0.0000000000E+00   0.0000000000E+00   0.0000000000E+00   0.0000000000E+00   0.0000000000E+00   0.8663644638E+00   0.2800051830E-12   0.2799303481E-12  -0.1186985134E-17   0.3717939674E-16   0.5709413476E-16
   0.2011617432E+01   0.0000000000E+00   0.1414329945E-18   0.3234863281E-02   0.0000000000E+00   0.4036458132E-18   0.8382568359E-02   0.0000000000E+00  -0.2622128187E-18   0.0000000000E+00   0.0000000000E+00   0.0000000000E+00   0.0000000000E+00   0.0000000000E+00   0.0000000000E+00   0.8663644640E+00   0.2796417391E-12   0.2796617879E-12   0.1512154107E-16  -0.4453938940E-16   0.7385821458E-16
   0.2011617432E+01   0.9972400362E+00   0.1577178827E-17   0.3234863281E-02  -0.7907493574E-03   0.1240480445E-17   0.8382568359E-02  -0.1969214476E-02   0.3366983822E-18   0.0000000000E+00   0.0000000000E+00   0.0000000000E+00   0.0000000000E+00   0.0000000000E+00   0.0000000000E+00   0.8663644638E+00   0.2803168837E-12   0.2802110311E-12   0.3722438101E-16   0.7665830329E-16   0.8427475388E-16
   0.2011617432E+01   0.0000000000E+00   0.9972400362E+00   0.3234863281E-02   0.0000000000E+00  -0.7907493574E-03   0.8382568359E-02   0.0000000000E+00  -0.1969214476E-02   0.0000000000E+00   0.0000000000E+00   0.0000000000E+00   0.0000000000E+00   0.0000000000E+00   0.0000000000E+00   0.8663644638E+00   0.2791904622E-12   0.2792554306E-12  -0.3216663284E-17   0.1171232945E-15  -0.3896816809E-16
   0.2011617432E+01   0.9972400362E+00   0.9972400362E+00   0.3234863281E-02  -0.7907493574E-03  -0.7907493574E-03   0.8382568359E-02  -0.1969214476E-02  -0.1969214476E-02   0.0000000000E+00   0.0000000000E+00   0.0000000000E+00   0.0000000000E+00   0.0000000000E+00   0.0000000000E+00   0.8663644637E+00   0.2798086714E-12   0.2797477383E-12  -0.8487434923E-16  -0.7052329312E-16  -0.6855337128E-16
     1     2     3     4     5     6     7     8
     2     9    10     3     6    11    12     7
 VARIABLES = X,Y,Z,DU1,DU2,DU3,U1,U2,U3,e11,e22,e33,e12,e13,e23,S11,S22,S33,S12,S13,S23
 ZONE, T="0.3079D+01" F=FEPOINT, I=   12 J=    2 ET=BRICK
   0.0000000000E+00   0.0000000000E+00   0.0000000000E+00   0.0000000000E+00   0.0000000000E+00   0.0000000000E+00   0.0000000000E+00   0.0000000000E+00   0.0000000000E+00   0.0000000000E+00   0.0000000000E+00   0.0000000000E+00   0.0000000000E+00   0.0000000000E+00   0.0000000000E+00   0.1046090315E+01   0.2988385688E-07   0.2988385710E-07  -0.5553248306E-17   0.7345836193E-16   0.8051224312E-16
   0.1015808716E+01   0.0000000000E+00   0.2608065217E-17   0.1000000000E-01   0.0000000000E+00   0.2500776885E-17   0.5808715820E-02   0.0000000000E+00   0.1072883316E-18   0.0000000000E+00   0.0000000000E+00   0.0000000000E+00   0.0000000000E+00   0.0000000000E+00   0.0000000000E+00   0.1046090315E+01   0.2988385272E-07   0.2988385263E-07  -0.6993720007E-16  -0.6716012737E-16  -0.3588718803E-16
   0.1015808716E+01   0.9922699905E+00   0.9832721392E-18   0.1000000000E-01  -0.4970045682E-02   0.1063058699E-17   0.5808715820E-02  -0.2759963833E-02  -0.7978655938E-19   0.0000000000E+00   0.0000000000E+00   0.0000000000E+00   0.0000000000E+00   0.0000000000E+00   0.0000000000E+00   0.1046090315E+01   0.2988385649E-07   0.2988385657E-07  -0.3086651198E-16   0.5925309155E-16   0.2097950584E-16
   0.0000000000E+00   0.9922699905E+00   0.2894004830E-17   0.0000000000E+00  -0.4970045682E-02   0.3330764908E-17   0.0000000000E+00  -0.2759963833E-02  -0.4367600783E-18   0.0000000000E+00   0.0000000000E+00   0.0000000000E+00   0.0000000000E+00   0.0000000000E+00   0.0000000000E+00   0.1046090315E+01   0.2988385186E-07   0.2988385162E-07   0.2737043823E-16  -0.9831879582E-16   0.2311911262E-16
   0.0000000000E+00   0.0000000000E+00   0.9922699905E+00   0.0000000000E+00   0.0000000000E+00  -0.4970045682E-02   0.0000000000E+00   0.0000000000E+00  -0.2759963833E-02   0.0000000000E+00   0.0000000000E+00   0.0000000000E+00   0.0000000000E+00   0.0000000000E+00   0.0000000000E+00   0.1046090315E+01   0.2988384838E-07   0.2988384850E-07  -0.1471291916E-16   0.4957532488E-16  -0.1840513639E-16
   0.1015808716E+01   0.0000000000E+00   0.9922699905E+00   0.1000000000E-01   0.0000000000E+00  -0.4970045682E-02   0.5808715820E-02   0.0000000000E+00  -0.2759963833E-02   0.0000000000E+00   0.0000000000E+00   0.0000000000E+00   0.0000000000E+00   0.0000000000E+00   0.0000000000E+00   0.1046090315E+01   0.2988385224E-07   0.2988385221E-07   0.2942166898E-16  -0.8685887923E-16  -0.2721123997E-16
   0.1015808716E+01   0.9922699905E+00   0.9922699905E+00   0.1000000000E-01  -0.4970045682E-02  -0.4970045682E-02   0.5808715820E-02  -0.2759963833E-02  -0.2759963833E-02   0.0000000000E+00   0.0000000000E+00   0.0000000000E+00   0.0000000000E+00   0.0000000000E+00   0.0000000000E+00   0.1046090315E+01   0.2988385605E-07   0.2988385604E-07  -0.4335426127E-16   0.1007555335E-15  -0.3567052014E-16
   0.0000000000E+00   0.9922699905E+00   0.9922699905E+00   0.0000000000E+00  -0.4970045682E-02  -0.4970045682E-02   0.0000000000E+00  -0.2759963833E-02  -0.2759963833E-02   0.0000000000E+00   0.0000000000E+00   0.0000000000E+00   0.0000000000E+00   0.0000000000E+00   0.0000000000E+00   0.1046090315E+01   0.2988384279E-07   0.2988384281E-07   0.4598837015E-16  -0.5266477842E-17   0.4545907991E-17
   0.2031617432E+01   0.0000000000E+00   0.3635198806E-18   0.2000000000E-01   0.0000000000E+00   0.2220868862E-18   0.1161743164E-01   0.0000000000E+00   0.1414329945E-18   0.0000000000E+00   0.0000000000E+00   0.0000000000E+00   0.0000000000E+00   0.0000000000E+00   0.0000000000E+00   0.1046090315E+01   0.2988384902E-07   0.2988384885E-07  -0.2018316349E-16   0.1088829197E-15   0.9833717278E-16
   0.2031617432E+01   0.9922699905E+00   0.4471204897E-17   0.2000000000E-01  -0.4970045682E-02   0.2894026070E-17   0.1161743164E-01  -0.2759963833E-02   0.1577178827E-17   0.0000000000E+00   0.0000000000E+00   0.0000000000E+00   0.0000000000E+00   0.0000000000E+00   0.0000000000E+00   0.1046090315E+01   0.2988385431E-07   0.2988385417E-07   0.1478172856E-16  -0.1359045099E-15  -0.5738122078E-17
   0.2031617432E+01   0.0000000000E+00   0.9922699905E+00   0.2000000000E-01   0.0000000000E+00  -0.4970045682E-02   0.1161743164E-01   0.0000000000E+00  -0.2759963833E-02   0.0000000000E+00   0.0000000000E+00   0.0000000000E+00   0.0000000000E+00   0.0000000000E+00   0.0000000000E+00   0.1046090315E+01   0.2988385403E-07   0.2988385425E-07  -0.5745208274E-16   0.2045466988E-15   0.2432591647E-16
   0.2031617432E+01   0.9922699905E+00   0.9922699905E+00   0.2000000000E-01  -0.4970045682E-02  -0.4970045682E-02   0.1161743164E-01  -0.2759963833E-02  -0.2759963833E-02   0.0000000000E+00   0.0000000000E+00   0.0000000000E+00   0.0000000000E+00   0.0000000000E+00   0.0000000000E+00   0.1046090315E+01   0.2988385957E-07   0.2988385956E-07   0.1396481526E-16  -0.3727700818E-15  -0.5952252091E-17
     1     2     3     4     5     6     7     8
     2     9    10     3     6    11    12     7
 VARIABLES = X,Y,Z,DU1,DU2,DU3,U1,U2,U3,e11,e22,e33,e12,e13,e23,S11,S22,S33,S12,S13,S23
 ZONE, T="0.3129D+01" F=FEPOINT, I=   12 J=    2 ET=BRICK
   0.0000000000E+00   0.0000000000E+00   0.0000000000E+00   0.0000000000E+00   0.0000000000E+00   0.0000000000E+00   0.0000000000E+00   0.0000000000E+00   0.0000000000E+00   0.0000000000E+00   0.0000000000E+00   0.0000000000E+00   0.0000000000E+00   0.0000000000E+00   0.0000000000E+00   0.1098931661E+01   0.4969160915E-08   0.4969161010E-08   0.1429161111E-16  -0.1473895581E-16  -0.4889939571E-16
   0.1025808716E+01   0.0000000000E+00  -0.1599466314E-17   0.1000000000E-01   0.0000000000E+00  -0.4207531531E-17   0.1580871582E-01   0.0000000000E+00   0.2608065217E-17   0.0000000000E+00   0.0000000000E+00   0.0000000000E+00   0.0000000000E+00   0.0000000000E+00   0.0000000000E+00   0.1098931661E+01   0.4969170624E-08   0.4969170765E-08   0.1387491660E-18   0.1414638522E-16  -0.3818397332E-16
   0.1025808716E+01   0.9872787974E+00  -0.4028787871E-17   0.1000000000E-01  -0.4991193117E-02  -0.5012060011E-17   0.1580871582E-01  -0.7730009515E-02   0.9832721392E-18   0.0000000000E+00   0.0000000000E+00   0.0000000000E+00   0.0000000000E+00   0.0000000000E+00   0.0000000000E+00   0.1098931660E+01   0.4969159797E-08   0.4969159895E-08   0.2404958679E-17  -0.2056809975E-16   0.4095939640E-16
   0.0000000000E+00   0.9872787974E+00  -0.3637618112E-17   0.0000000000E+00  -0.4991193117E-02  -0.6531622941E-17   0.0000000000E+00  -0.7730009515E-02   0.2894004830E-17   0.0000000000E+00   0.0000000000E+00   0.0000000000E+00   0.0000000000E+00   0.0000000000E+00   0.0000000000E+00   0.1098931660E+01   0.4969159575E-08   0.4969159590E-08   0.2568486615E-16  -0.4593720595E-16  -0.1622703638E-16
   0.0000000000E+00   0.0000000000E+00   0.9872787974E+00   0.0000000000E+00   0.0000000000E+00  -0.4991193117E-02   0.0000000000E+00   0.0000000000E+00  -0.7730009515E-02   0.0000000000E+00   0.0000000000E+00   0.0000000000E+00   0.0000000000E+00   0.0000000000E+00   0.0000000000E+00   0.1098931660E+01   0.4969161916E-08   0.4969161810E-08  -0.1752691732E-16   0.6320490095E-16  -0.4083148531E-16
   0.1025808716E+01   0.0000000000E+00   0.9872787974E+00   0.1000000000E-01   0.0000000000E+00  -0.4991193117E-02   0.1580871582E-01   0.0000000000E+00  -0.7730009515E-02   0.0000000000E+00   0.0000000000E+00   0.0000000000E+00   0.0000000000E+00   0.0000000000E+00   0.0000000000E+00   0.1098931660E+01   0.4969162279E-08   0.4969162307E-08   0.4232200214E-16   0.3181976029E-16  -0.5325970739E-16
   0.1025808716E+01   0.9872787974E+00   0.9872787974E+00   0.1000000000E-01  -0.4991193117E-02  -0.4991193117E-02   0.1580871582E-01  -0.7730009515E-02  -0.7730009515E-02   0.0000000000E+00   0.0000000000E+00   0.0000000000E+00   0.0000000000E+00   0.0000000000E+00   0.0000000000E+00   0.1098931660E+01   0.4969167138E-08   0.4969167124E-08  -0.1316640649E-16  -0.2884661968E-16  -0.1297978694E-16
   0.0000000000E+00   0.9872787974E+00   0.9872787974E+00   0.0000000000E+00  -0.4991193117E-02  -0.4991193117E-02   0.0000000000E+00  -0.7730009515E-02  -0.7730009515E-02   0.0000000000E+00   0.0000000000E+00   0.0000000000E+00   0.0000000000E+00   0.0000000000E+00   0.0000000000E+00   0.1098931660E+01   0.4969168345E-08   0.4969168160E-08   0.2811017465E-16   0.5377640851E-16   0.1147180981E-15
   0.2051617432E+01   0.0000000000E+00  -0.2025157066E-17   0.2000000000E-01   0.0000000000E+00  -0.2388676947E-17   0.3161743164E-01   0.0000000000E+00   0.3635198806E-18   0.0000000000E+00   0.0000000000E+00   0.0000000000E+00   0.0000000000E+00   0.0000000000E+00   0.0000000000E+00   0.1098931661E+01   0.4969170188E-08   0.4969170321E-08  -0.3552795192E-16  -0.7799082126E-17   0.2963943079E-16
   0.2051617432E+01   0.9872787974E+00  -0.3882315014E-18   0.2000000000E-01  -0.4991193117E-02  -0.4859436398E-17   0.3161743164E-01  -0.7730009515E-02   0.4471204897E-17   0.0000000000E+00   0.0000000000E+00   0.0000000000E+00   0.0000000000E+00   0.0000000000E+00   0.0000000000E+00   0.1098931660E+01   0.4969149874E-08   0.4969150000E-08   0.4121726969E-16   0.1363568989E-15   0.6790357419E-17
   0.2051617432E+01   0.0000000000E+00   0.9872787974E+00   0.2000000000E-01   0.0000000000E+00  -0.4991193117E-02   0.3161743164E-01   0.0000000000E+00  -0.7730009515E-02   0.0000000000E+00   0.0000000000E+00   0.0000000000E+00   0.0000000000E+00   0.0000000000E+00   0.0000000000E+00   0.1098931660E+01   0.4969157849E-08   0.4969157808E-08   0.1916948401E-17   0.6705203544E-16  -0.3490722211E-16
   0.2051617432E+01   0.9872787974E+00   0.9872787974E+00   0.2000000000E-01  -0.4991193117E-02  -0.4991193117E-02   0.3161743164E-01  -0.7730009515E-02  -0.7730009515E-02   0.0000000000E+00   0.0000000000E+00   0.0000000000E+00   0.0000000000E+00   0.0000000000E+00   0.0000000000E+00   0.1098931660E+01   0.4969161139E-08   0.4969161092E-08  -0.7711644244E-16  -0.2314657766E-16   0.7103572721E-16
     1     2     3     4     5     6     7     8
     2     9    10     3     6    11    12     7
 VARIABLES = X,Y,Z,DU1,DU2,DU3,U1,U2,U3,e11,e22,e33,e12,e13,e23,S11,S22,S33,S12,S13,S23
 ZONE, T="0.3179D+01" F=FEPOINT, I=   12 J=    2 ET=BRICK
   0.0000000000E+00   0.0000000000E+00   0.0000000000E+00   0.0000000000E+00   0.0000000000E+00   0.0000000000E+00   0.0000000000E+00   0.0000000000E+00   0.0000000000E+00   0.0000000000E+00   0.0000000000E+00   0.0000000000E+00   0.0000000000E+00   0.0000000000E+00   0.0000000000E+00   0.1135652777E+01   0.4291456192E-10   0.4291456866E-10   0.6670453762E-17  -0.1776505266E-16  -0.1323405667E-16
   0.1035808716E+01   0.0000000000E+00  -0.4760442295E-18   0.1000000000E-01   0.0000000000E+00   0.1123422085E-17   0.2580871582E-01   0.0000000000E+00  -0.1599466314E-17   0.0000000000E+00   0.0000000000E+00   0.0000000000E+00   0.0000000000E+00   0.0000000000E+00   0.0000000000E+00   0.1135652777E+01   0.4291921193E-10   0.4291921554E-10  -0.8456167301E-16   0.6180644119E-16  -0.3127873174E-16
   0.1035808716E+01   0.9822849176E+00  -0.3696256228E-17   0.1000000000E-01  -0.4993879816E-02   0.3325316438E-18   0.2580871582E-01  -0.1272120263E-01  -0.4028787871E-17   0.0000000000E+00   0.0000000000E+00   0.0000000000E+00   0.0000000000E+00   0.0000000000E+00   0.0000000000E+00   0.1135652777E+01   0.4292959693E-10   0.4292964721E-10  -0.2329757237E-16  -0.9053453745E-16   0.6432675387E-16
   0.0000000000E+00   0.9822849176E+00   0.2006869951E-18   0.0000000000E+00  -0.4993879816E-02   0.3838305107E-17   0.0000000000E+00  -0.1272120263E-01  -0.3637618112E-17   0.0000000000E+00   0.0000000000E+00   0.0000000000E+00   0.0000000000E+00   0.0000000000E+00   0.0000000000E+00   0.1135652777E+01   0.4291596803E-10   0.4291595144E-10  -0.4998658316E-16  -0.4783623553E-16  -0.1884605318E-16
   0.0000000000E+00   0.0000000000E+00   0.9822849176E+00   0.0000000000E+00   0.0000000000E+00  -0.4993879816E-02   0.0000000000E+00   0.0000000000E+00  -0.1272120263E-01   0.0000000000E+00   0.0000000000E+00   0.0000000000E+00   0.0000000000E+00   0.0000000000E+00   0.0000000000E+00   0.1135652777E+01   0.4293549500E-10   0.4293549319E-10   0.1005073448E-16   0.3721380775E-16  -0.3030771032E-16
   0.1035808716E+01   0.0000000000E+00   0.9822849176E+00   0.1000000000E-01   0.0000000000E+00  -0.4993879816E-02   0.2580871582E-01   0.0000000000E+00  -0.1272120263E-01   0.0000000000E+00   0.0000000000E+00   0.0000000000E+00   0.0000000000E+00   0.0000000000E+00   0.0000000000E+00   0.1135652777E+01   0.4293048911E-10   0.4293042897E-10  -0.8831897307E-16   0.1986502405E-16  -0.3150512607E-16
   0.1035808716E+01   0.9822849176E+00   0.9822849176E+00   0.1000000000E-01  -0.4993879816E-02  -0.4993879816E-02   0.2580871582E-01  -0.1272120263E-01  -0.1272120263E-01   0.0000000000E+00   0.0000000000E+00   0.0000000000E+00   0.0000000000E+00   0.0000000000E+00   0.0000000000E+00   0.1135652777E+01   0.4293046577E-10   0.4293045230E-10  -0.6041024080E-17   0.3627154902E-16   0.1927822334E-16
   0.0000000000E+00   0.9822849176E+00   0.9822849176E+00   0.0000000000E+00  -0.4993879816E-02  -0.4993879816E-02   0.0000000000E+00  -0.1272120263E-01  -0.1272120263E-01   0.0000000000E+00   0.0000000000E+00   0.0000000000E+00   0.0000000000E+00   0.0000000000E+00   0.0000000000E+00   0.1135652777E+01   0.4291088026E-10   0.4291085512E-10   0.1084062485E-15  -0.3153825437E-16   0.7976313185E-17
   0.2071617432E+01   0.0000000000E+00  -0.3998286034E-17   0.2000000000E-01   0.0000000000E+00  -0.1973128968E-17   0.5161743164E-01   0.0000000000E+00  -0.2025157066E-17   0.0000000000E+00   0.0000000000E+00   0.0000000000E+00   0.0000000000E+00   0.0000000000E+00   0.0000000000E+00   0.1135652777E+01   0.4292821436E-10   0.4292830818E-10  -0.2552346186E-16  -0.6474189354E-16   0.3031881990E-16
   0.2071617432E+01   0.9822849176E+00  -0.6180182993E-18   0.2000000000E-01  -0.4993879816E-02  -0.2297867978E-18   0.5161743164E-01  -0.1272120263E-01  -0.3882315014E-18   0.0000000000E+00   0.0000000000E+00   0.0000000000E+00   0.0000000000E+00   0.0000000000E+00   0.0000000000E+00   0.1135652777E+01   0.4292698241E-10   0.4292675121E-10   0.2176978908E-16   0.7212646383E-16   0.8228721713E-16
   0.2071617432E+01   0.0000000000E+00   0.9822849176E+00   0.2000000000E-01   0.0000000000E+00  -0.4993879816E-02   0.5161743164E-01   0.0000000000E+00  -0.1272120263E-01   0.0000000000E+00   0.0000000000E+00   0.0000000000E+00   0.0000000000E+00   0.0000000000E+00   0.0000000000E+00   0.1135652777E+01   0.4292983563E-10   0.4292981049E-10  -0.3373522838E-16   0.1906223254E-15  -0.3349837813E-16
   0.2071617432E+01   0.9822849176E+00   0.9822849176E+00   0.2000000000E-01  -0.4993879816E-02  -0.4993879816E-02   0.5161743164E-01  -0.1272120263E-01  -0.1272120263E-01   0.0000000000E+00   0.0000000000E+00   0.0000000000E+00   0.0000000000E+00   0.0000000000E+00   0.0000000000E+00   0.1135652777E+01   0.4293380786E-10   0.4293345769E-10   0.2176892176E-17  -0.2555921177E-15   0.2969347053E-17
     1     2     3     4     5     6     7     8
     2     9    10     3     6    11    12     7
 VARIABLES = X,Y,Z,DU1,DU2,DU3,U1,U2,U3,e11,e22,e33,e12,e13,e23,S11,S22,S33,S12,S13,S23
 ZONE, T="0.3229D+01" F=FEPOINT, I=   12 J=    2 ET=BRICK
   0.0000000000E+00   0.0000000000E+00   0.0000000000E+00   0.0000000000E+00   0.0000000000E+00   0.0000000000E+00   0.0000000000E+00   0.0000000000E+00   0.0000000000E+00   0.0000000000E+00   0.0000000000E+00   0.0000000000E+00   0.0000000000E+00   0.0000000000E+00   0.0000000000E+00   0.1164051025E+01   0.7164440545E-11   0.7164296728E-11  -0.2614979421E-16   0.1893979195E-17   0.3494521613E-16
   0.1045808716E+01   0.0000000000E+00   0.1773023574E-18   0.1000000000E-01   0.0000000000E+00   0.6533465869E-18   0.3580871582E-01   0.0000000000E+00  -0.4760442295E-18   0.0000000000E+00   0.0000000000E+00   0.0000000000E+00   0.0000000000E+00   0.0000000000E+00   0.0000000000E+00   0.1164051025E+01   0.7157848872E-11   0.7157816505E-11  -0.8799820306E-16  -0.1005413458E-15  -0.2726518460E-16
   0.1045808716E+01   0.9772896506E+00  -0.2849425029E-17   0.1000000000E-01  -0.4995266959E-02   0.8468311989E-18   0.3580871582E-01  -0.1771508245E-01  -0.3696256228E-17   0.0000000000E+00   0.0000000000E+00   0.0000000000E+00   0.0000000000E+00   0.0000000000E+00   0.0000000000E+00   0.1164051025E+01   0.7151526308E-11   0.7151665729E-11  -0.9657092078E-16   0.1041600358E-15  -0.5661272704E-18
   0.0000000000E+00   0.9772896506E+00   0.3123126140E-18   0.0000000000E+00  -0.4995266959E-02   0.1116256189E-18   0.0000000000E+00  -0.1771508245E-01   0.2006869951E-18   0.0000000000E+00   0.0000000000E+00   0.0000000000E+00   0.0000000000E+00   0.0000000000E+00   0.0000000000E+00   0.1164051025E+01   0.7153696891E-11   0.7153652692E-11  -0.8780786697E-16  -0.5818316260E-16  -0.8837579455E-16
   0.0000000000E+00   0.0000000000E+00   0.9772896506E+00   0.0000000000E+00   0.0000000000E+00  -0.4995266959E-02   0.0000000000E+00   0.0000000000E+00  -0.1771508245E-01   0.0000000000E+00   0.0000000000E+00   0.0000000000E+00   0.0000000000E+00   0.0000000000E+00   0.0000000000E+00   0.1164051025E+01   0.7150682876E-11   0.7150694722E-11   0.1252375755E-16   0.5256225528E-17   0.2652574808E-16
   0.1045808716E+01   0.0000000000E+00   0.9772896506E+00   0.1000000000E-01   0.0000000000E+00  -0.4995266959E-02   0.3580871582E-01   0.0000000000E+00  -0.1771508245E-01   0.0000000000E+00   0.0000000000E+00   0.0000000000E+00   0.0000000000E+00   0.0000000000E+00   0.0000000000E+00   0.1164051025E+01   0.7153744481E-11   0.7153707106E-11   0.7550838487E-16  -0.1108262531E-15   0.3433228370E-16
   0.1045808716E+01   0.9772896506E+00   0.9772896506E+00   0.1000000000E-01  -0.4995266959E-02  -0.4995266959E-02   0.3580871582E-01  -0.1771508245E-01  -0.1771508245E-01   0.0000000000E+00   0.0000000000E+00   0.0000000000E+00   0.0000000000E+00   0.0000000000E+00   0.0000000000E+00   0.1164051025E+01   0.7168173778E-11   0.7168308274E-11   0.1075513390E-15   0.6680648445E-16   0.5363113957E-16
   0.0000000000E+00   0.9772896506E+00   0.9772896506E+00   0.0000000000E+00  -0.4995266959E-02  -0.4995266959E-02   0.0000000000E+00  -0.1771508245E-01  -0.1771508245E-01   0.0000000000E+00   0.0000000000E+00   0.0000000000E+00   0.0000000000E+00   0.0000000000E+00   0.0000000000E+00   0.1164051025E+01   0.7160997415E-11   0.7161108865E-11   0.7713608273E-16   0.2727205060E-16   0.6301243081E-16
   0.2091617432E+01   0.0000000000E+00   0.6109838108E-18   0.2000000000E-01   0.0000000000E+00   0.4609269845E-17   0.7161743164E-01   0.0000000000E+00  -0.3998286034E-17   0.0000000000E+00   0.0000000000E+00   0.0000000000E+00   0.0000000000E+00   0.0000000000E+00   0.0000000000E+00   0.1164051025E+01   0.7166408262E-11   0.7166106391E-11  -0.7234154232E-17   0.4321775836E-16   0.1446892419E-16
   0.2091617432E+01   0.9772896506E+00  -0.1040428585E-17   0.2000000000E-01  -0.4995266959E-02  -0.4224102856E-18   0.7161743164E-01  -0.1771508245E-01  -0.6180182993E-18   0.0000000000E+00   0.0000000000E+00   0.0000000000E+00   0.0000000000E+00   0.0000000000E+00   0.0000000000E+00   0.1164051025E+01   0.7153792117E-11   0.7153557345E-11   0.9605872695E-16   0.3871590496E-16  -0.1959104614E-15
   0.2091617432E+01   0.0000000000E+00   0.9772896506E+00   0.2000000000E-01   0.0000000000E+00  -0.4995266959E-02   0.7161743164E-01   0.0000000000E+00  -0.1771508245E-01   0.0000000000E+00   0.0000000000E+00   0.0000000000E+00   0.0000000000E+00   0.0000000000E+00   0.0000000000E+00   0.1164051025E+01   0.7140249020E-11   0.7140311889E-11  -0.5474312295E-17  -0.2391914048E-15   0.5968210289E-16
   0.2091617432E+01   0.9772896506E+00   0.9772896506E+00   0.2000000000E-01  -0.4995266959E-02  -0.4995266959E-02   0.7161743164E-01  -0.1771508245E-01  -0.1771508245E-01   0.0000000000E+00   0.0000000000E+00   0.0000000000E+00   0.0000000000E+00   0.0000000000E+00   0.0000000000E+00   0.1164051025E+01   0.7148691068E-11   0.7148821214E-11  -0.1338529783E-15   0.9144316779E-16  -0.6569479591E-16
     1     2     3     4     5     6     7     8
     2     9    10     3     6    11    12     7
 VARIABLES = X,Y,Z,DU1,DU2,DU3,U1,U2,U3,e11,e22,e33,e12,e13,e23,S11,S22,S33,S12,S13,S23
 ZONE, T="0.3279D+01" F=FEPOINT, I=   12 J=    2 ET=BRICK
   0.0000000000E+00   0.0000000000E+00   0.0000000000E+00   0.0000000000E+00   0.0000000000E+00   0.0000000000E+00   0.0000000000E+00   0.0000000000E+00   0.0000000000E+00   0.0000000000E+00   0.0000000000E+00   0.0000000000E+00   0.0000000000E+00   0.0000000000E+00   0.0000000000E+00   0.1187319008E+01   0.1872068198E-11   0.1871889048E-11   0.8449183435E-17  -0.4097476020E-16  -0.1331282327E-16
   0.1055808716E+01   0.0000000000E+00  -0.8090508315E-17   0.1000000000E-01   0.0000000000E+00  -0.8267810672E-17   0.4580871582E-01   0.0000000000E+00   0.1773023574E-18   0.0000000000E+00   0.0000000000E+00   0.0000000000E+00   0.0000000000E+00   0.0000000000E+00   0.0000000000E+00   0.1187319008E+01   0.1867857232E-11   0.1867842480E-11  -0.9965175423E-16  -0.1247878524E-15  -0.1842376361E-16
   0.1055808716E+01   0.9722935286E+00  -0.7171319790E-17   0.1000000000E-01  -0.4996122003E-02  -0.4321894762E-17   0.4580871582E-01  -0.2271034941E-01  -0.2849425029E-17   0.0000000000E+00   0.0000000000E+00   0.0000000000E+00   0.0000000000E+00   0.0000000000E+00   0.0000000000E+00   0.1187319008E+01   0.1865646244E-11   0.1865685661E-11  -0.1155370351E-15   0.1602687276E-15   0.2203678479E-17
   0.0000000000E+00   0.9722935286E+00  -0.3458471028E-17   0.0000000000E+00  -0.4996122003E-02  -0.3770783642E-17   0.0000000000E+00  -0.2271034941E-01   0.3123126140E-18   0.0000000000E+00   0.0000000000E+00   0.0000000000E+00   0.0000000000E+00   0.0000000000E+00   0.0000000000E+00   0.1187319008E+01   0.1871167752E-11   0.1871190765E-11  -0.4164763012E-16  -0.5812346744E-16  -0.9328544677E-16
   0.0000000000E+00   0.0000000000E+00   0.9722935286E+00   0.0000000000E+00   0.0000000000E+00  -0.4996122003E-02   0.0000000000E+00   0.0000000000E+00  -0.2271034941E-01   0.0000000000E+00   0.0000000000E+00   0.0000000000E+00   0.0000000000E+00   0.0000000000E+00   0.0000000000E+00   0.1187319008E+01   0.1864409284E-11   0.1864339035E-11  -0.1053630034E-16   0.9359265134E-16   0.1206568433E-15
   0.1055808716E+01   0.0000000000E+00   0.9722935286E+00   0.1000000000E-01   0.0000000000E+00  -0.4996122003E-02   0.4580871582E-01   0.0000000000E+00  -0.2271034941E-01   0.0000000000E+00   0.0000000000E+00   0.0000000000E+00   0.0000000000E+00   0.0000000000E+00   0.0000000000E+00   0.1187319008E+01   0.1868957002E-11   0.1868926613E-11   0.5846992153E-16  -0.2624444658E-17   0.1975340090E-19
   0.1055808716E+01   0.9722935286E+00   0.9722935286E+00   0.1000000000E-01  -0.4996122003E-02  -0.4996122003E-02   0.4580871582E-01  -0.2271034941E-01  -0.2271034941E-01   0.0000000000E+00   0.0000000000E+00   0.0000000000E+00   0.0000000000E+00   0.0000000000E+00   0.0000000000E+00   0.1187319008E+01   0.1866746014E-11   0.1866769794E-11   0.1196170414E-15   0.5833673742E-16   0.1353178972E-16
   0.0000000000E+00   0.9722935286E+00   0.9722935286E+00   0.0000000000E+00  -0.4996122003E-02  -0.4996122003E-02   0.0000000000E+00  -0.2271034941E-01  -0.2271034941E-01   0.0000000000E+00   0.0000000000E+00   0.0000000000E+00   0.0000000000E+00   0.0000000000E+00   0.0000000000E+00   0.1187319008E+01   0.1863508838E-11   0.1863640751E-11   0.4984715044E-16  -0.1033147049E-15  -0.9479910331E-18
   0.2111617432E+01   0.0000000000E+00  -0.4450379799E-17   0.2000000000E-01   0.0000000000E+00  -0.5061363610E-17   0.9161743164E-01   0.0000000000E+00   0.6109838108E-18   0.0000000000E+00   0.0000000000E+00   0.0000000000E+00   0.0000000000E+00   0.0000000000E+00   0.0000000000E+00   0.1187319008E+01   0.1861594719E-11   0.1861479652E-11  -0.1328550769E-16   0.1015758504E-15  -0.8455905333E-16
   0.2111617432E+01   0.9722935286E+00  -0.1729678304E-16   0.2000000000E-01  -0.4996122003E-02  -0.1625635445E-16   0.9161743164E-01  -0.2271034941E-01  -0.1040428585E-17   0.0000000000E+00   0.0000000000E+00   0.0000000000E+00   0.0000000000E+00   0.0000000000E+00   0.0000000000E+00   0.1187319008E+01   0.1878593880E-11   0.1878680976E-11  -0.4514887170E-16  -0.1780599715E-15  -0.2727214263E-16
   0.2111617432E+01   0.0000000000E+00   0.9722935286E+00   0.2000000000E-01   0.0000000000E+00  -0.4996122003E-02   0.9161743164E-01   0.0000000000E+00  -0.2271034941E-01   0.0000000000E+00   0.0000000000E+00   0.0000000000E+00   0.0000000000E+00   0.0000000000E+00   0.0000000000E+00   0.1187319008E+01   0.1861044833E-11   0.1860937585E-11  -0.6118624663E-16   0.1028008036E-15   0.3379338342E-16
   0.2111617432E+01   0.9722935286E+00   0.9722935286E+00   0.2000000000E-01  -0.4996122003E-02  -0.4996122003E-02   0.9161743164E-01  -0.2271034941E-01  -0.2271034941E-01   0.0000000000E+00   0.0000000000E+00   0.0000000000E+00   0.0000000000E+00   0.0000000000E+00   0.0000000000E+00   0.1187319008E+01   0.1878043995E-11   0.1878138910E-11  -0.4445926730E-16  -0.8484911486E-16   0.3538530960E-16
     1     2     3     4     5     6     7     8
     2     9    10     3     6    11    12     7
 VARIABLES = X,Y,Z,DU1,DU2,DU3,U1,U2,U3,e11,e22,e33,e12,e13,e23,S11,S22,S33,S12,S13,S23
 ZONE, T="0.3329D+01" F=FEPOINT, I=   12 J=    2 ET=BRICK
   0.0000000000E+00   0.0000000000E+00   0.0000000000E+00   0.0000000000E+00   0.0000000000E+00   0.0000000000E+00   0.0000000000E+00   0.0000000000E+00   0.0000000000E+00   0.0000000000E+00   0.0000000000E+00   0.0000000000E+00   0.0000000000E+00   0.0000000000E+00   0.0000000000E+00   0.1207090247E+01   0.6491189491E-12   0.6490403795E-12  -0.1402549947E-16  -0.3224329634E-16   0.1210137210E-15
   0.1065808716E+01   0.0000000000E+00  -0.3107654018E-17   0.1000000000E-01   0.0000000000E+00   0.4982854296E-17   0.5580871582E-01   0.0000000000E+00  -0.8090508315E-17   0.0000000000E+00   0.0000000000E+00   0.0000000000E+00   0.0000000000E+00   0.0000000000E+00   0.0000000000E+00   0.1207090247E+01   0.6331038951E-12   0.6331676665E-12   0.5066502686E-16   0.1745302065E-15   0.7375296424E-16
   0.1065808716E+01   0.9672968238E+00   0.9697310545E-17   0.1000000000E-01  -0.4996704794E-02   0.1686863034E-16   0.5580871582E-01  -0.2770647141E-01  -0.7171319790E-17   0.0000000000E+00   0.0000000000E+00   0.0000000000E+00   0.0000000000E+00   0.0000000000E+00   0.0000000000E+00   0.1207090246E+01   0.6270676841E-12   0.6270578186E-12  -0.4102611071E-16  -0.5438999825E-16   0.5275421995E-16
   0.0000000000E+00   0.9672968238E+00   0.1394188642E-16   0.0000000000E+00  -0.4996704794E-02   0.1740035745E-16   0.0000000000E+00  -0.2770647141E-01  -0.3458471028E-17   0.0000000000E+00   0.0000000000E+00   0.0000000000E+00   0.0000000000E+00   0.0000000000E+00   0.0000000000E+00   0.1207090246E+01   0.6380932244E-12   0.6378772465E-12  -0.4732300663E-16  -0.4105743020E-16  -0.2044189366E-15
   0.0000000000E+00   0.0000000000E+00   0.9672968238E+00   0.0000000000E+00   0.0000000000E+00  -0.4996704794E-02   0.0000000000E+00   0.0000000000E+00  -0.2770647141E-01   0.0000000000E+00   0.0000000000E+00   0.0000000000E+00   0.0000000000E+00   0.0000000000E+00   0.0000000000E+00   0.1207090246E+01   0.6486365636E-12   0.6489297894E-12   0.3439717572E-17  -0.2953730846E-16   0.3178053380E-16
   0.1065808716E+01   0.0000000000E+00   0.9672968238E+00   0.1000000000E-01   0.0000000000E+00  -0.4996704794E-02   0.5580871582E-01   0.0000000000E+00  -0.2770647141E-01   0.0000000000E+00   0.0000000000E+00   0.0000000000E+00   0.0000000000E+00   0.0000000000E+00   0.0000000000E+00   0.1207090246E+01   0.6413396466E-12   0.6414501020E-12  -0.1168029334E-15   0.1080562785E-15   0.3495480697E-16
   0.1065808716E+01   0.9672968238E+00   0.9672968238E+00   0.1000000000E-01  -0.4996704794E-02  -0.4996704794E-02   0.5580871582E-01  -0.2770647141E-01  -0.2770647141E-01   0.0000000000E+00   0.0000000000E+00   0.0000000000E+00   0.0000000000E+00   0.0000000000E+00   0.0000000000E+00   0.1207090246E+01   0.6353034356E-12   0.6353402541E-12  -0.1151172093E-15   0.2479159680E-16  -0.6288305764E-16
   0.0000000000E+00   0.9672968238E+00   0.9672968238E+00   0.0000000000E+00  -0.4996704794E-02  -0.4996704794E-02   0.0000000000E+00  -0.2770647141E-01  -0.2770647141E-01   0.0000000000E+00   0.0000000000E+00   0.0000000000E+00   0.0000000000E+00   0.0000000000E+00   0.0000000000E+00   0.1207090246E+01   0.6376108389E-12   0.6377666564E-12   0.7177693529E-16  -0.9842192570E-16  -0.1346764048E-15
   0.2131617432E+01   0.0000000000E+00  -0.9723293339E-18   0.2000000000E-01   0.0000000000E+00   0.3478050465E-17   0.1116174316E+00   0.0000000000E+00  -0.4450379799E-17   0.0000000000E+00   0.0000000000E+00   0.0000000000E+00   0.0000000000E+00   0.0000000000E+00   0.0000000000E+00   0.1207090247E+01   0.6335064384E-12   0.6335113712E-12   0.4869807570E-16  -0.4667309854E-16   0.7838252454E-17
   0.2131617432E+01   0.9672968238E+00  -0.7523689038E-18   0.2000000000E-01  -0.4996704794E-02   0.1654441413E-16   0.1116174316E+00  -0.2770647141E-01  -0.1729678304E-16   0.0000000000E+00   0.0000000000E+00   0.0000000000E+00   0.0000000000E+00   0.0000000000E+00   0.0000000000E+00   0.1207090246E+01   0.6327148268E-12   0.6327098940E-12  -0.7583349995E-16  -0.1636474691E-16   0.2586452283E-17
   0.2131617432E+01   0.0000000000E+00   0.9672968238E+00   0.2000000000E-01   0.0000000000E+00  -0.4996704794E-02   0.1116174316E+00   0.0000000000E+00  -0.2770647141E-01   0.0000000000E+00   0.0000000000E+00   0.0000000000E+00   0.0000000000E+00   0.0000000000E+00   0.0000000000E+00   0.1207090246E+01   0.6293885627E-12   0.6293701535E-12  -0.5097651074E-16  -0.2549837219E-15   0.3108512502E-17
   0.2131617432E+01   0.9672968238E+00   0.9672968238E+00   0.2000000000E-01  -0.4996704794E-02  -0.4996704794E-02   0.1116174316E+00  -0.2770647141E-01  -0.2770647141E-01   0.0000000000E+00   0.0000000000E+00   0.0000000000E+00   0.0000000000E+00   0.0000000000E+00   0.0000000000E+00   0.1207090246E+01   0.6285969511E-12   0.6285686764E-12   0.3386641818E-16   0.6975571889E-16  -0.1192445072E-16
     1     2     3     4     5     6     7     8
     2     9    10     3     6    11    12     7
 VARIABLES = X,Y,Z,DU1,DU2,DU3,U1,U2,U3,e11,e22,e33,e12,e13,e23,S11,S22,S33,S12,S13,S23
 ZONE, T="0.3379D+01" F=FEPOINT, I=   12 J=    2 ET=BRICK
   0.0000000000E+00   0.0000000000E+00   0.0000000000E+00   0.0000000000E+00   0.0000000000E+00   0.0000000000E+00   0.0000000000E+00   0.0000000000E+00   0.0000000000E+00   0.0000000000E+00   0.0000000000E+00   0.0000000000E+00   0.0000000000E+00   0.0000000000E+00   0.0000000000E+00   0.1224317092E+01   0.2425159233E-12   0.2425383025E-12   0.2866581616E-16   0.2755725409E-16  -0.9143285892E-17
   0.1075808716E+01   0.0000000000E+00   0.6514969935E-18   0.1000000000E-01   0.0000000000E+00   0.3759151012E-17   0.6580871582E-01   0.0000000000E+00  -0.3107654018E-17   0.0000000000E+00   0.0000000000E+00   0.0000000000E+00   0.0000000000E+00   0.0000000000E+00   0.0000000000E+00   0.1224317092E+01   0.2462608290E-12   0.2464278691E-12  -0.5630445132E-16  -0.3514935436E-16  -0.4167748255E-16
   0.1075808716E+01   0.9622996949E+00   0.1626112168E-17   0.1000000000E-01  -0.4997128859E-02  -0.8071198377E-17   0.6580871582E-01  -0.3270317620E-01   0.9697310545E-17   0.0000000000E+00   0.0000000000E+00   0.0000000000E+00   0.0000000000E+00   0.0000000000E+00   0.0000000000E+00   0.1224317092E+01   0.2566454459E-12   0.2567476752E-12   0.1969516102E-17   0.1378669758E-16   0.8408112109E-16
   0.0000000000E+00   0.9622996949E+00  -0.1041105223E-16   0.0000000000E+00  -0.4997128859E-02  -0.2435293865E-16   0.0000000000E+00  -0.3270317620E-01   0.1394188642E-16   0.0000000000E+00   0.0000000000E+00   0.0000000000E+00   0.0000000000E+00   0.0000000000E+00   0.0000000000E+00   0.1224317092E+01   0.2827666892E-12   0.2827803854E-12   0.1760421809E-15  -0.2430161142E-17   0.6539989670E-16
   0.0000000000E+00   0.0000000000E+00   0.9622996949E+00   0.0000000000E+00   0.0000000000E+00  -0.4997128859E-02   0.0000000000E+00   0.0000000000E+00  -0.3270317620E-01   0.0000000000E+00   0.0000000000E+00   0.0000000000E+00   0.0000000000E+00   0.0000000000E+00   0.0000000000E+00   0.1224317092E+01   0.2671391407E-12   0.2670145322E-12  -0.1979216062E-17  -0.1379347707E-16  -0.1532693679E-15
   0.1075808716E+01   0.0000000000E+00   0.9622996949E+00   0.1000000000E-01   0.0000000000E+00  -0.4997128859E-02   0.6580871582E-01   0.0000000000E+00  -0.3270317620E-01   0.0000000000E+00   0.0000000000E+00   0.0000000000E+00   0.0000000000E+00   0.0000000000E+00   0.0000000000E+00   0.1224317092E+01   0.2671660408E-12   0.2671560145E-12  -0.6242644809E-16  -0.8224324726E-16   0.5976169465E-16
   0.1075808716E+01   0.9622996949E+00   0.9622996949E+00   0.1000000000E-01  -0.4997128859E-02  -0.4997128859E-02   0.6580871582E-01  -0.3270317620E-01  -0.3270317620E-01   0.0000000000E+00   0.0000000000E+00   0.0000000000E+00   0.0000000000E+00   0.0000000000E+00   0.0000000000E+00   0.1224317092E+01   0.2567339790E-12   0.2566591420E-12  -0.1420021086E-15  -0.9698291163E-16  -0.1111328839E-15
   0.0000000000E+00   0.9622996949E+00   0.9622996949E+00   0.0000000000E+00  -0.4997128859E-02  -0.4997128859E-02   0.0000000000E+00  -0.3270317620E-01  -0.3270317620E-01   0.0000000000E+00   0.0000000000E+00   0.0000000000E+00   0.0000000000E+00   0.0000000000E+00   0.0000000000E+00   0.1224317092E+01   0.2553482105E-12   0.2552149190E-12  -0.7461033068E-16   0.1556826387E-15   0.1618796679E-15
   0.2151617432E+01   0.0000000000E+00   0.1563980273E-16   0.2000000000E-01   0.0000000000E+00   0.1661213206E-16   0.1316174316E+00   0.0000000000E+00  -0.9723293339E-18   0.0000000000E+00   0.0000000000E+00   0.0000000000E+00   0.0000000000E+00   0.0000000000E+00   0.0000000000E+00   0.1224317092E+01   0.2709520348E-12   0.2707799816E-12  -0.5965115146E-17   0.9970755497E-18   0.5533173615E-16
   0.2151617432E+01   0.9622996949E+00   0.1780290521E-16   0.2000000000E-01  -0.4997128859E-02   0.1855527411E-16   0.1316174316E+00  -0.3270317620E-01  -0.7523689038E-18   0.0000000000E+00   0.0000000000E+00   0.0000000000E+00   0.0000000000E+00   0.0000000000E+00   0.0000000000E+00   0.1224317092E+01   0.2516950139E-12   0.2514020221E-12  -0.4087021941E-16   0.1572146916E-15  -0.1136664364E-15
   0.2151617432E+01   0.0000000000E+00   0.9622996949E+00   0.2000000000E-01   0.0000000000E+00  -0.4997128859E-02   0.1316174316E+00   0.0000000000E+00  -0.3270317620E-01   0.0000000000E+00   0.0000000000E+00   0.0000000000E+00   0.0000000000E+00   0.0000000000E+00   0.0000000000E+00   0.1224317092E+01   0.2462813727E-12   0.2463511966E-12  -0.4114660363E-18   0.4668383902E-16  -0.3704221388E-16
   0.2151617432E+01   0.9622996949E+00   0.9622996949E+00   0.2000000000E-01  -0.4997128859E-02  -0.4997128859E-02   0.1316174316E+00  -0.3270317620E-01  -0.3270317620E-01   0.0000000000E+00   0.0000000000E+00   0.0000000000E+00   0.0000000000E+00   0.0000000000E+00   0.0000000000E+00   0.1224317092E+01   0.2374326906E-12   0.2373815759E-12   0.3204137038E-16  -0.4643776069E-16   0.3483350672E-16
     1     2     3     4     5     6     7     8
     2     9    10     3     6    11    12     7
 VARIABLES = X,Y,Z,DU1,DU2,DU3,U1,U2,U3,e11,e22,e33,e12,e13,e23,S11,S22,S33,S12,S13,S23
 ZONE, T="0.3429D+01" F=FEPOINT, I=   12 J=    2 ET=BRICK
   0.0000000000E+00   0.0000000000E+00   0.0000000000E+00   0.0000000000E+00   0.0000000000E+00   0.0000000000E+00   0.0000000000E+00   0.0000000000E+00   0.0000000000E+00   0.0000000000E+00   0.0000000000E+00   0.0000000000E+00   0.0000000000E+00   0.0000000000E+00   0.0000000000E+00   0.1239605159E+01   0.1422118347E-12   0.1425312043E-12  -0.1366713174E-16   0.8932916170E-17   0.1218883876E-15
   0.1085808716E+01   0.0000000000E+00   0.1346200631E-16   0.1000000000E-01   0.0000000000E+00   0.1281050932E-16   0.7580871582E-01   0.0000000000E+00   0.6514969935E-18   0.0000000000E+00   0.0000000000E+00   0.0000000000E+00   0.0000000000E+00   0.0000000000E+00   0.0000000000E+00   0.1239605159E+01   0.1268920979E-12   0.1269912759E-12  -0.5581623326E-16  -0.9711734342E-16   0.1483453199E-15
   0.1085808716E+01   0.9573022429E+00   0.3885110197E-16   0.1000000000E-01  -0.4997451989E-02   0.3722498980E-16   0.7580871582E-01  -0.3770030506E-01   0.1626112168E-17   0.0000000000E+00   0.0000000000E+00   0.0000000000E+00   0.0000000000E+00   0.0000000000E+00   0.0000000000E+00   0.1239605159E+01   0.1209410096E-12   0.1208663621E-12  -0.1394101694E-15   0.4726601628E-16   0.2443756603E-16
   0.0000000000E+00   0.9573022429E+00   0.2972060176E-16   0.0000000000E+00  -0.4997451989E-02   0.4013165399E-16   0.0000000000E+00  -0.3770030506E-01  -0.1041105223E-16   0.0000000000E+00   0.0000000000E+00   0.0000000000E+00   0.0000000000E+00   0.0000000000E+00   0.0000000000E+00   0.1239605159E+01   0.1130401132E-12   0.1127876867E-12   0.1444614060E-15   0.5445914577E-16   0.1393032230E-15
   0.0000000000E+00   0.0000000000E+00   0.9573022429E+00   0.0000000000E+00   0.0000000000E+00  -0.4997451989E-02   0.0000000000E+00   0.0000000000E+00  -0.3770030506E-01   0.0000000000E+00   0.0000000000E+00   0.0000000000E+00   0.0000000000E+00   0.0000000000E+00   0.0000000000E+00   0.1239605159E+01   0.1245943030E-12   0.1247369063E-12   0.8632144043E-17   0.4824164782E-16  -0.1271495574E-16
   0.1085808716E+01   0.0000000000E+00   0.9573022429E+00   0.1000000000E-01   0.0000000000E+00  -0.4997451989E-02   0.7580871582E-01   0.0000000000E+00  -0.3770030506E-01   0.0000000000E+00   0.0000000000E+00   0.0000000000E+00   0.0000000000E+00   0.0000000000E+00   0.0000000000E+00   0.1239605159E+01   0.1186126944E-12   0.1187910628E-12   0.1536701088E-15  -0.2210326792E-15  -0.3110186930E-16
   0.1085808716E+01   0.9573022429E+00   0.9573022429E+00   0.1000000000E-01  -0.4997451989E-02  -0.4997451989E-02   0.7580871582E-01  -0.3770030506E-01  -0.3770030506E-01   0.0000000000E+00   0.0000000000E+00   0.0000000000E+00   0.0000000000E+00   0.0000000000E+00   0.0000000000E+00   0.1239605159E+01   0.1126316463E-12   0.1126360928E-12   0.1655406042E-15   0.1279305359E-15  -0.1180356319E-15
   0.0000000000E+00   0.9573022429E+00   0.9573022429E+00   0.0000000000E+00  -0.4997451989E-02  -0.4997451989E-02   0.0000000000E+00  -0.3770030506E-01  -0.3770030506E-01   0.0000000000E+00   0.0000000000E+00   0.0000000000E+00   0.0000000000E+00   0.0000000000E+00   0.0000000000E+00   0.1239605159E+01   0.9570693215E-13   0.9527773586E-13  -0.9366009538E-16   0.8598878867E-16  -0.1149633423E-15
   0.2171617432E+01   0.0000000000E+00   0.5463376061E-16   0.2000000000E-01   0.0000000000E+00   0.3899395788E-16   0.1516174316E+00   0.0000000000E+00   0.1563980273E-16   0.0000000000E+00   0.0000000000E+00   0.0000000000E+00   0.0000000000E+00   0.0000000000E+00   0.0000000000E+00   0.1239605159E+01   0.9513403341E-13   0.9493949336E-13   0.1163790427E-16   0.1770631421E-15  -0.1346072855E-15
   0.2171617432E+01   0.9573022429E+00   0.2467138095E-16   0.2000000000E-01  -0.4997451989E-02   0.6868475749E-17   0.1516174316E+00  -0.3770030506E-01   0.1780290521E-16   0.0000000000E+00   0.0000000000E+00   0.0000000000E+00   0.0000000000E+00   0.0000000000E+00   0.0000000000E+00   0.1239605159E+01   0.1123222727E-12   0.1123518478E-12  -0.1287665881E-15   0.1045844139E-16  -0.1556778804E-15
   0.2171617432E+01   0.0000000000E+00   0.9573022429E+00   0.2000000000E-01   0.0000000000E+00  -0.4997451989E-02   0.1516174316E+00   0.0000000000E+00  -0.3770030506E-01   0.0000000000E+00   0.0000000000E+00   0.0000000000E+00   0.0000000000E+00   0.0000000000E+00   0.0000000000E+00   0.1239605159E+01   0.1171078376E-12   0.1170476476E-12  -0.5467961970E-16  -0.2265610812E-15   0.9476498598E-17
   0.2171617432E+01   0.9573022429E+00   0.9573022429E+00   0.2000000000E-01  -0.4997451989E-02  -0.4997451989E-02   0.1516174316E+00  -0.3770030506E-01  -0.3770030506E-01   0.0000000000E+00   0.0000000000E+00   0.0000000000E+00   0.0000000000E+00   0.0000000000E+00   0.0000000000E+00   0.1239605159E+01   0.1343361642E-12   0.1345000413E-12  -0.1001935286E-16   0.1555568618E-15   0.1290318512E-15
     1     2     3     4     5     6     7     8
     2     9    10     3     6    11    12     7
 VARIABLES = X,Y,Z,DU1,DU2,DU3,U1,U2,U3,e11,e22,e33,e12,e13,e23,S11,S22,S33,S12,S13,S23
 ZONE, T="0.3479D+01" F=FEPOINT, I=   12 J=    2 ET=BRICK
   0.0000000000E+00   0.0000000000E+00   0.0000000000E+00   0.0000000000E+00   0.0000000000E+00   0.0000000000E+00   0.0000000000E+00   0.0000000000E+00   0.0000000000E+00   0.0000000000E+00   0.0000000000E+00   0.0000000000E+00   0.0000000000E+00   0.0000000000E+00   0.0000000000E+00   0.1253364327E+01   0.3110064700E-13   0.3108698254E-13  -0.2564071392E-17   0.4766305879E-17   0.1431906538E-16
   0.1095808716E+01   0.0000000000E+00  -0.2807707547E-17   0.1000000000E-01   0.0000000000E+00  -0.1626971386E-16   0.8580871582E-01   0.0000000000E+00   0.1346200631E-16   0.0000000000E+00   0.0000000000E+00   0.0000000000E+00   0.0000000000E+00   0.0000000000E+00   0.0000000000E+00   0.1253364327E+01   0.5537029240E-13   0.5546414025E-13   0.3157977533E-18   0.2159657196E-16  -0.3356391821E-16
   0.1095808716E+01   0.9523045361E+00  -0.1244200900E-16   0.1000000000E-01  -0.4997706805E-02  -0.5129311097E-16   0.8580871582E-01  -0.4269775705E-01   0.3885110197E-16   0.0000000000E+00   0.0000000000E+00   0.0000000000E+00   0.0000000000E+00   0.0000000000E+00   0.0000000000E+00   0.1253364327E+01   0.5537026892E-13   0.5546416057E-13  -0.1587049920E-16   0.2480670628E-16   0.7839537014E-16
   0.0000000000E+00   0.9523045361E+00   0.1197944285E-16   0.0000000000E+00  -0.4997706805E-02  -0.1774115891E-16   0.0000000000E+00  -0.4269775705E-01   0.2972060176E-16   0.0000000000E+00   0.0000000000E+00   0.0000000000E+00   0.0000000000E+00   0.0000000000E+00   0.0000000000E+00   0.1253364327E+01   0.6334648357E-13   0.6329954204E-13  -0.8224472213E-16  -0.1112672872E-15   0.6223203444E-16
   0.0000000000E+00   0.0000000000E+00   0.9523045361E+00   0.0000000000E+00   0.0000000000E+00  -0.4997706805E-02   0.0000000000E+00   0.0000000000E+00  -0.4269775705E-01   0.0000000000E+00   0.0000000000E+00   0.0000000000E+00   0.0000000000E+00   0.0000000000E+00   0.0000000000E+00   0.1253364327E+01   0.3187951499E-13   0.3191128809E-13  -0.9230037354E-17  -0.6525583991E-17   0.2121292633E-16
   0.1095808716E+01   0.0000000000E+00   0.9523045361E+00   0.1000000000E-01   0.0000000000E+00  -0.4997706805E-02   0.8580871582E-01   0.0000000000E+00  -0.4269775705E-01   0.0000000000E+00   0.0000000000E+00   0.0000000000E+00   0.0000000000E+00   0.0000000000E+00   0.0000000000E+00   0.1253364327E+01   0.6143194986E-13   0.6136841224E-13   0.5654028926E-16   0.3423603134E-16  -0.1015356357E-15
   0.1095808716E+01   0.9523045361E+00   0.9523045361E+00   0.1000000000E-01  -0.4997706805E-02  -0.4997706805E-02   0.8580871582E-01  -0.4269775705E-01  -0.4269775705E-01   0.0000000000E+00   0.0000000000E+00   0.0000000000E+00   0.0000000000E+00   0.0000000000E+00   0.0000000000E+00   0.1253364327E+01   0.6143203745E-13   0.6136844744E-13   0.9318065190E-16   0.1174326698E-15   0.2983466848E-16
   0.0000000000E+00   0.9523045361E+00   0.9523045361E+00   0.0000000000E+00  -0.4997706805E-02  -0.4997706805E-02   0.0000000000E+00  -0.4269775705E-01  -0.4269775705E-01   0.0000000000E+00   0.0000000000E+00   0.0000000000E+00   0.0000000000E+00   0.0000000000E+00   0.0000000000E+00   0.1253364327E+01   0.6412532179E-13   0.6412384015E-13   0.1086088289E-15  -0.8432861463E-16  -0.1373104708E-15
   0.2191617432E+01   0.0000000000E+00  -0.3473275909E-16   0.2000000000E-01   0.0000000000E+00  -0.8936651970E-16   0.1716174316E+00   0.0000000000E+00   0.5463376061E-16   0.0000000000E+00   0.0000000000E+00   0.0000000000E+00   0.0000000000E+00   0.0000000000E+00   0.0000000000E+00   0.1253364327E+01   0.7963989086E-13   0.7984127448E-13  -0.9847772773E-16  -0.2966166567E-16   0.1081582892E-16
   0.2191617432E+01   0.9523045361E+00  -0.3817163817E-16   0.2000000000E-01  -0.4997706805E-02  -0.6284301913E-16   0.1716174316E+00  -0.4269775705E-01   0.2467138095E-16   0.0000000000E+00   0.0000000000E+00   0.0000000000E+00   0.0000000000E+00   0.0000000000E+00   0.0000000000E+00   0.1253364327E+01   0.4739406685E-13   0.4762878539E-13   0.6790612292E-16  -0.2213799136E-15   0.8395739930E-16
   0.2191617432E+01   0.0000000000E+00   0.9523045361E+00   0.2000000000E-01   0.0000000000E+00  -0.4997706805E-02   0.1716174316E+00   0.0000000000E+00  -0.4269775705E-01   0.0000000000E+00   0.0000000000E+00   0.0000000000E+00   0.0000000000E+00   0.0000000000E+00   0.0000000000E+00   0.1253364327E+01   0.9098455993E-13   0.9082562398E-13   0.5590872369E-16   0.1273830191E-15  -0.2371248489E-16
   0.2191617432E+01   0.9523045361E+00   0.9523045361E+00   0.2000000000E-01  -0.4997706805E-02  -0.4997706805E-02   0.1716174316E+00  -0.4269775705E-01  -0.4269775705E-01   0.0000000000E+00   0.0000000000E+00   0.0000000000E+00   0.0000000000E+00   0.0000000000E+00   0.0000000000E+00   0.1253364327E+01   0.5873870617E-13   0.5861303125E-13   0.9290794405E-16  -0.1043525818E-15   0.7553012583E-19
     1     2     3     4     5     6     7     8
     2     9    10     3     6    11    12     7
 VARIABLES = X,Y,Z,DU1,DU2,DU3,U1,U2,U3,e11,e22,e33,e12,e13,e23,S11,S22,S33,S12,S13,S23
 ZONE, T="0.3529D+01" F=FEPOINT, I=   12 J=    2 ET=BRICK
   0.0000000000E+00   0.0000000000E+00   0.0000000000E+00   0.0000000000E+00   0.0000000000E+00   0.0000000000E+00   0.0000000000E+00   0.0000000000E+00   0.0000000000E+00   0.0000000000E+00   0.0000000000E+00   0.0000000000E+00   0.0000000000E+00   0.0000000000E+00   0.0000000000E+00   0.1251229352E+01   0.7965049813E-14   0.8119827409E-14   0.7990518980E-17   0.8298979822E-16   0.9570003321E-16
   0.1094191284E+01   0.0000000000E+00   0.1530250139E-16  -0.1617431641E-02   0.0000000000E+00   0.1811020893E-16   0.9580871582E-01   0.0000000000E+00  -0.2807707547E-17   0.0000000000E+00   0.0000000000E+00   0.0000000000E+00   0.0000000000E+00   0.0000000000E+00   0.0000000000E+00   0.1251229352E+01   0.3413503185E-13   0.3402433979E-13   0.3825993540E-16  -0.1165335034E-16  -0.2042367240E-16
   0.1094191284E+01   0.9531128961E+00   0.1342630625E-16  -0.1617431641E-02   0.8083599911E-03   0.2586831525E-16   0.9580871582E-01  -0.4769546386E-01  -0.1244200900E-16   0.0000000000E+00   0.0000000000E+00   0.0000000000E+00   0.0000000000E+00   0.0000000000E+00   0.0000000000E+00   0.1251229352E+01   0.1341778478E-13   0.1330709272E-13   0.8870500592E-16  -0.4243969289E-16   0.9580829456E-17
   0.0000000000E+00   0.9531128961E+00   0.2063207414E-16   0.0000000000E+00   0.8083599911E-03   0.8652631291E-17   0.0000000000E+00  -0.4769546386E-01   0.1197944285E-16   0.0000000000E+00   0.0000000000E+00   0.0000000000E+00   0.0000000000E+00   0.0000000000E+00   0.0000000000E+00   0.1251229352E+01  -0.1285519824E-13  -0.1286027629E-13  -0.5830855690E-16  -0.4262612909E-16   0.1013386618E-15
   0.0000000000E+00   0.0000000000E+00   0.9531128961E+00   0.0000000000E+00   0.0000000000E+00   0.8083599911E-03   0.0000000000E+00   0.0000000000E+00  -0.4769546386E-01   0.0000000000E+00   0.0000000000E+00   0.0000000000E+00   0.0000000000E+00   0.0000000000E+00   0.0000000000E+00   0.1251229352E+01   0.5496513193E-14   0.5595392572E-14  -0.1470404919E-16   0.4563567421E-16  -0.8859445979E-16
   0.1094191284E+01   0.0000000000E+00   0.9531128961E+00  -0.1617431641E-02   0.0000000000E+00   0.8083599911E-03   0.9580871582E-01   0.0000000000E+00  -0.4769546386E-01   0.0000000000E+00   0.0000000000E+00   0.0000000000E+00   0.0000000000E+00   0.0000000000E+00   0.0000000000E+00   0.1251229352E+01   0.5082911976E-14   0.5151579308E-14  -0.1668970812E-16  -0.2002393572E-16   0.4733394841E-16
   0.1094191284E+01   0.9531128961E+00   0.9531128961E+00  -0.1617431641E-02   0.8083599911E-03   0.8083599911E-03   0.9580871582E-01  -0.4769546386E-01  -0.4769546386E-01   0.0000000000E+00   0.0000000000E+00   0.0000000000E+00   0.0000000000E+00   0.0000000000E+00   0.0000000000E+00   0.1251229351E+01   0.2587294799E-13   0.2594161533E-13  -0.7733291529E-16  -0.7128827929E-16  -0.4399602147E-16
   0.0000000000E+00   0.9531128961E+00   0.9531128961E+00   0.0000000000E+00   0.8083599911E-03   0.8083599911E-03   0.0000000000E+00  -0.4769546386E-01  -0.4769546386E-01   0.0000000000E+00   0.0000000000E+00   0.0000000000E+00   0.0000000000E+00   0.0000000000E+00   0.0000000000E+00   0.1251229351E+01   0.2631414824E-13   0.2625317197E-13   0.2810275296E-17   0.2608385758E-16  -0.1995524546E-15
   0.2188382568E+01   0.0000000000E+00   0.5972460373E-17  -0.3234863281E-02   0.0000000000E+00   0.4070521947E-16   0.1916174316E+00   0.0000000000E+00  -0.3473275909E-16   0.0000000000E+00   0.0000000000E+00   0.0000000000E+00   0.0000000000E+00   0.0000000000E+00   0.0000000000E+00   0.1251229352E+01   0.4394070182E-13   0.4371011802E-13   0.7845857958E-16   0.1372060111E-15   0.1402374569E-15
   0.2188382568E+01   0.9531128961E+00   0.3123515879E-16  -0.3234863281E-02   0.8083599911E-03   0.6940679696E-16   0.1916174316E+00  -0.4769546386E-01  -0.3817163817E-16   0.0000000000E+00   0.0000000000E+00   0.0000000000E+00   0.0000000000E+00   0.0000000000E+00   0.0000000000E+00   0.1251229352E+01   0.2307430742E-13   0.2300357927E-13   0.2729600478E-15  -0.1321198732E-15  -0.1473144762E-15
   0.2188382568E+01   0.0000000000E+00   0.9531128961E+00  -0.3234863281E-02   0.0000000000E+00   0.8083599911E-03   0.1916174316E+00   0.0000000000E+00  -0.4769546386E-01   0.0000000000E+00   0.0000000000E+00   0.0000000000E+00   0.0000000000E+00   0.0000000000E+00   0.0000000000E+00   0.1251229352E+01   0.9054114391E-14   0.9053562197E-14  -0.1267530741E-15   0.1846827582E-15   0.1707765103E-15
   0.2188382568E+01   0.9531128961E+00   0.9531128961E+00  -0.3234863281E-02   0.8083599911E-03   0.8083599911E-03   0.1916174316E+00  -0.4769546386E-01  -0.4769546386E-01   0.0000000000E+00   0.0000000000E+00   0.0000000000E+00   0.0000000000E+00   0.0000000000E+00   0.0000000000E+00   0.1251229351E+01   0.2988411431E-13   0.3004341777E-13  -0.1887446871E-15  -0.5570259821E-17  -0.6031825906E-16
     1     2     3     4     5     6     7     8
     2     9    10     3     6    11    12     7
 VARIABLES = X,Y,Z,DU1,DU2,DU3,U1,U2,U3,e11,e22,e33,e12,e13,e23,S11,S22,S33,S12,S13,S23
 ZONE, T="0.3579D+01" F=FEPOINT, I=   12 J=    2 ET=BRICK
   0.0000000000E+00   0.0000000000E+00   0.0000000000E+00   0.0000000000E+00   0.0000000000E+00   0.0000000000E+00   0.0000000000E+00   0.0000000000E+00   0.0000000000E+00   0.0000000000E+00   0.0000000000E+00   0.0000000000E+00   0.0000000000E+00   0.0000000000E+00   0.0000000000E+00   0.1237245100E+01   0.5258684003E-13   0.5266449730E-13   0.2212767480E-16  -0.2530192107E-16  -0.4111487554E-16
   0.1084191284E+01   0.0000000000E+00  -0.1165830950E-16  -0.1000000000E-01   0.0000000000E+00  -0.2696081089E-16   0.9419128418E-01   0.0000000000E+00   0.1530250139E-16   0.0000000000E+00   0.0000000000E+00   0.0000000000E+00   0.0000000000E+00   0.0000000000E+00   0.0000000000E+00   0.1237245100E+01  -0.7501610538E-14  -0.7362127924E-14  -0.5373283267E-16   0.6788568445E-16   0.1634754232E-16
   0.1084191284E+01   0.9581105654E+00  -0.9400172773E-17  -0.1000000000E-01   0.4997669291E-02  -0.2282647902E-16   0.9419128418E-01  -0.4688710386E-01   0.1342630625E-16   0.0000000000E+00   0.0000000000E+00   0.0000000000E+00   0.0000000000E+00   0.0000000000E+00   0.0000000000E+00   0.1237245099E+01  -0.6815941574E-14  -0.6713809745E-14   0.3687456869E-16   0.2168662905E-16   0.4556070841E-16
   0.0000000000E+00   0.9581105654E+00  -0.3488658570E-17   0.0000000000E+00   0.4997669291E-02  -0.2412073271E-16   0.0000000000E+00  -0.4688710386E-01   0.2063207414E-16   0.0000000000E+00   0.0000000000E+00   0.0000000000E+00   0.0000000000E+00   0.0000000000E+00   0.0000000000E+00   0.1237245099E+01  -0.1122686254E-13  -0.1127002423E-13  -0.3905121599E-16  -0.4602221340E-16   0.1354051717E-15
   0.0000000000E+00   0.0000000000E+00   0.9581105654E+00   0.0000000000E+00   0.0000000000E+00   0.4997669291E-02   0.0000000000E+00   0.0000000000E+00  -0.4688710386E-01   0.0000000000E+00   0.0000000000E+00   0.0000000000E+00   0.0000000000E+00   0.0000000000E+00   0.0000000000E+00   0.1237245099E+01  -0.3757734170E-14  -0.3634019341E-14  -0.6088161895E-17  -0.1591672248E-15  -0.8525526520E-16
   0.1084191284E+01   0.0000000000E+00   0.9581105654E+00  -0.1000000000E-01   0.0000000000E+00   0.4997669291E-02   0.9419128418E-01   0.0000000000E+00  -0.4688710386E-01   0.0000000000E+00   0.0000000000E+00   0.0000000000E+00   0.0000000000E+00   0.0000000000E+00   0.0000000000E+00   0.1237245099E+01   0.2164175459E-13   0.2153963135E-13  -0.5624385431E-17   0.1359468597E-15   0.6226572487E-16
   0.1084191284E+01   0.9581105654E+00   0.9581105654E+00  -0.1000000000E-01   0.4997669291E-02   0.4997669291E-02   0.9419128418E-01  -0.4688710386E-01  -0.4688710386E-01   0.0000000000E+00   0.0000000000E+00   0.0000000000E+00   0.0000000000E+00   0.0000000000E+00   0.0000000000E+00   0.1237245099E+01   0.1436034793E-14   0.1296520113E-14  -0.7956523659E-16   0.4880655932E-17   0.3463749779E-16
   0.0000000000E+00   0.9581105654E+00   0.9581105654E+00   0.0000000000E+00   0.4997669291E-02   0.4997669291E-02   0.0000000000E+00  -0.4688710386E-01  -0.4688710386E-01   0.0000000000E+00   0.0000000000E+00   0.0000000000E+00   0.0000000000E+00   0.0000000000E+00   0.0000000000E+00   0.1237245099E+01   0.5501215473E-14   0.5504105894E-14  -0.7186575606E-16   0.3130256223E-16  -0.5813768887E-16
   0.2168382568E+01   0.0000000000E+00  -0.1340321037E-16  -0.2000000000E-01   0.0000000000E+00  -0.1937567075E-16   0.1883825684E+00   0.0000000000E+00   0.5972460373E-17   0.0000000000E+00   0.0000000000E+00   0.0000000000E+00   0.0000000000E+00   0.0000000000E+00   0.0000000000E+00   0.1237245100E+01  -0.1365924621E-13  -0.1366213778E-13  -0.6037841190E-17  -0.3833732490E-15  -0.2689448346E-16
   0.2168382568E+01   0.9581105654E+00  -0.2020705248E-16  -0.2000000000E-01   0.4997669291E-02  -0.5144221128E-16   0.1883825684E+00  -0.4688710386E-01   0.3123515879E-16   0.0000000000E+00   0.0000000000E+00   0.0000000000E+00   0.0000000000E+00   0.0000000000E+00   0.0000000000E+00   0.1237245099E+01   0.3035543172E-13   0.3019439388E-13  -0.1412121533E-16   0.3414116233E-15   0.2260382752E-17
   0.2168382568E+01   0.0000000000E+00   0.9581105654E+00  -0.2000000000E-01   0.0000000000E+00   0.4997669291E-02   0.1883825684E+00   0.0000000000E+00  -0.4688710386E-01   0.0000000000E+00   0.0000000000E+00   0.0000000000E+00   0.0000000000E+00   0.0000000000E+00   0.0000000000E+00   0.1237245099E+01   0.3796407477E-13   0.3804462360E-13  -0.8739668350E-16  -0.3590524639E-15  -0.1770969722E-15
   0.2168382568E+01   0.9581105654E+00   0.9581105654E+00  -0.2000000000E-01   0.4997669291E-02   0.4997669291E-02   0.1883825684E+00  -0.4688710386E-01  -0.4688710386E-01   0.0000000000E+00   0.0000000000E+00   0.0000000000E+00   0.0000000000E+00   0.0000000000E+00   0.0000000000E+00   0.1237245099E+01  -0.3216922784E-13  -0.3224690114E-13  -0.5786793799E-16   0.1202537280E-15  -0.7836099748E-16
     1     2     3     4     5     6     7     8
     2     9    10     3     6    11    12     7
 VARIABLES = X,Y,Z,DU1,DU2,DU3,U1,U2,U3,e11,e22,e33,e12,e13,e23,S11,S22,S33,S12,S13,S23
 ZONE, T="0.3629D+01" F=FEPOINT, I=   12 J=    2 ET=BRICK
   0.0000000000E+00   0.0000000000E+00   0.0000000000E+00   0.0000000000E+00   0.0000000000E+00   0.0000000000E+00   0.0000000000E+00   0.0000000000E+00   0.0000000000E+00   0.0000000000E+00   0.0000000000E+00   0.0000000000E+00   0.0000000000E+00   0.0000000000E+00   0.0000000000E+00   0.1221675199E+01   0.8992396095E-13   0.8993673426E-13  -0.1366641434E-16  -0.5523091045E-16  -0.6614102829E-16
   0.1074191284E+01   0.0000000000E+00  -0.1720717318E-16  -0.1000000000E-01   0.0000000000E+00  -0.5548863675E-17   0.8419128418E-01   0.0000000000E+00  -0.1165830950E-16   0.0000000000E+00   0.0000000000E+00   0.0000000000E+00   0.0000000000E+00   0.0000000000E+00   0.0000000000E+00   0.1221675199E+01   0.1017761899E-12   0.1016007809E-12   0.5564309590E-16  -0.6462655611E-16   0.7671077371E-16
   0.1074191284E+01   0.9631079704E+00  -0.5577528277E-17  -0.1000000000E-01   0.4997405017E-02   0.3822644497E-17   0.8419128418E-01  -0.4188943457E-01  -0.9400172773E-17   0.0000000000E+00   0.0000000000E+00   0.0000000000E+00   0.0000000000E+00   0.0000000000E+00   0.0000000000E+00   0.1221675199E+01   0.1221598913E-12   0.1220747032E-12   0.5736899338E-16  -0.1156426120E-15  -0.1489934860E-15
   0.0000000000E+00   0.9631079704E+00  -0.1379441962E-16   0.0000000000E+00   0.4997405017E-02  -0.1030576105E-16   0.0000000000E+00  -0.4188943457E-01  -0.3488658570E-17   0.0000000000E+00   0.0000000000E+00   0.0000000000E+00   0.0000000000E+00   0.0000000000E+00   0.0000000000E+00   0.1221675199E+01   0.9761887472E-13   0.9778477267E-13   0.1164775534E-15   0.1110581048E-15   0.1236406964E-16
   0.0000000000E+00   0.0000000000E+00   0.9631079704E+00   0.0000000000E+00   0.0000000000E+00   0.4997405017E-02   0.0000000000E+00   0.0000000000E+00  -0.4188943457E-01   0.0000000000E+00   0.0000000000E+00   0.0000000000E+00   0.0000000000E+00   0.0000000000E+00   0.0000000000E+00   0.1221675199E+01   0.9430533079E-13   0.9426973726E-13  -0.1112765388E-16   0.9274524174E-17  -0.3989719874E-17
   0.1074191284E+01   0.0000000000E+00   0.9631079704E+00  -0.1000000000E-01   0.0000000000E+00   0.4997405017E-02   0.8419128418E-01   0.0000000000E+00  -0.4188943457E-01   0.0000000000E+00   0.0000000000E+00   0.0000000000E+00   0.0000000000E+00   0.0000000000E+00   0.0000000000E+00   0.1221675199E+01   0.8542468274E-13   0.8542979143E-13  -0.1417863254E-15   0.1149068671E-15   0.5772225078E-17
   0.1074191284E+01   0.9631079704E+00   0.9631079704E+00  -0.1000000000E-01   0.4997405017E-02   0.4997405017E-02   0.8419128418E-01  -0.4188943457E-01  -0.4188943457E-01   0.0000000000E+00   0.0000000000E+00   0.0000000000E+00   0.0000000000E+00   0.0000000000E+00   0.0000000000E+00   0.1221675199E+01   0.1054956425E-12   0.1055910276E-12  -0.1474631712E-15  -0.3991107539E-16  -0.8220265810E-16
   0.0000000000E+00   0.9631079704E+00   0.9631079704E+00   0.0000000000E+00   0.4997405017E-02   0.4997405017E-02   0.0000000000E+00  -0.4188943457E-01  -0.4188943457E-01   0.0000000000E+00   0.0000000000E+00   0.0000000000E+00   0.0000000000E+00   0.0000000000E+00   0.0000000000E+00   0.1221675199E+01   0.1020840563E-12   0.1022015597E-12  -0.1337644766E-15  -0.6942956575E-16   0.8907261596E-16
   0.2148382568E+01   0.0000000000E+00  -0.3203808420E-16  -0.2000000000E-01   0.0000000000E+00  -0.1863487383E-16   0.1683825684E+00   0.0000000000E+00  -0.1340321037E-16   0.0000000000E+00   0.0000000000E+00   0.0000000000E+00   0.0000000000E+00   0.0000000000E+00   0.0000000000E+00   0.1221675199E+01   0.9716247237E-13   0.9734044589E-13  -0.4160740321E-16   0.1483647962E-15   0.7725696410E-16
   0.2148382568E+01   0.9631079704E+00  -0.1545860171E-16  -0.2000000000E-01   0.4997405017E-02   0.4748450773E-17   0.1683825684E+00  -0.4188943457E-01  -0.2020705248E-16   0.0000000000E+00   0.0000000000E+00   0.0000000000E+00   0.0000000000E+00   0.0000000000E+00   0.0000000000E+00   0.1221675199E+01   0.1090217016E-12   0.1089982012E-12  -0.1406000850E-15  -0.1546620113E-17   0.1563722911E-15
   0.2148382568E+01   0.0000000000E+00   0.9631079704E+00  -0.2000000000E-01   0.0000000000E+00   0.4997405017E-02   0.1683825684E+00   0.0000000000E+00  -0.4188943457E-01   0.0000000000E+00   0.0000000000E+00   0.0000000000E+00   0.0000000000E+00   0.0000000000E+00   0.0000000000E+00   0.1221675199E+01   0.1015438477E-12   0.1016734489E-12  -0.7086409482E-17   0.1678482936E-15   0.3227829962E-16
   0.2148382568E+01   0.9631079704E+00   0.9631079704E+00  -0.2000000000E-01   0.4997405017E-02   0.4997405017E-02   0.1683825684E+00  -0.4188943457E-01  -0.4188943457E-01   0.0000000000E+00   0.0000000000E+00   0.0000000000E+00   0.0000000000E+00   0.0000000000E+00   0.0000000000E+00   0.1221675199E+01   0.1134868628E-12   0.1134149882E-12   0.1489347252E-15  -0.9027562637E-16  -0.2346303948E-16
     1     2     3     4     5     6     7     8
     2     9    10     3     6    11    12     7
 VARIABLES = X,Y,Z,DU1,DU2,DU3,U1,U2,U3,e11,e22,e33,e12,e13,e23,S11,S22,S33,S12,S13,S23
 ZONE, T="0.3679D+01" F=FEPOINT, I=   12 J=    2 ET=BRICK
   0.0000000000E+00   0.0000000000E+00   0.0000000000E+00   0.0000000000E+00   0.0000000000E+00   0.0000000000E+00   0.0000000000E+00   0.0000000000E+00   0.0000000000E+00   0.0000000000E+00   0.0000000000E+00   0.0000000000E+00   0.0000000000E+00   0.0000000000E+00   0.0000000000E+00   0.1204084587E+01   0.2329533256E-12   0.2329872846E-12  -0.3111942311E-17   0.1307118695E-15   0.6940573558E-16
   0.1064191284E+01   0.0000000000E+00   0.5628039474E-17  -0.1000000000E-01   0.0000000000E+00   0.2283521265E-16   0.7419128418E-01   0.0000000000E+00  -0.1720717318E-16   0.0000000000E+00   0.0000000000E+00   0.0000000000E+00   0.0000000000E+00   0.0000000000E+00   0.0000000000E+00   0.1204084587E+01   0.2325193846E-12   0.2326222511E-12  -0.1005484580E-15  -0.2004461759E-15   0.1450414261E-16
   0.1064191284E+01   0.9681050387E+00   0.3708330293E-17  -0.1000000000E-01   0.4997068231E-02   0.9285858570E-17   0.7419128418E-01  -0.3689202956E-01  -0.5577528277E-17   0.0000000000E+00   0.0000000000E+00   0.0000000000E+00   0.0000000000E+00   0.0000000000E+00   0.0000000000E+00   0.1204084587E+01   0.2036034430E-12   0.2036034430E-12  -0.2406635398E-16   0.1743517965E-15   0.3090989671E-16
   0.0000000000E+00   0.9681050387E+00   0.1026807680E-16   0.0000000000E+00   0.4997068231E-02   0.2406249641E-16   0.0000000000E+00  -0.3689202956E-01  -0.1379441962E-16   0.0000000000E+00   0.0000000000E+00   0.0000000000E+00   0.0000000000E+00   0.0000000000E+00   0.0000000000E+00   0.1204084587E+01   0.2030956173E-12   0.2029550990E-12  -0.2742757994E-16  -0.1417733609E-15   0.1082132431E-15
   0.0000000000E+00   0.0000000000E+00   0.9681050387E+00   0.0000000000E+00   0.0000000000E+00   0.4997068231E-02   0.0000000000E+00   0.0000000000E+00  -0.3689202956E-01   0.0000000000E+00   0.0000000000E+00   0.0000000000E+00   0.0000000000E+00   0.0000000000E+00   0.0000000000E+00   0.1204084587E+01   0.1806829120E-12   0.1807205638E-12  -0.4555049825E-16   0.3878510950E-16  -0.6942685099E-16
   0.1064191284E+01   0.0000000000E+00   0.9681050387E+00  -0.1000000000E-01   0.0000000000E+00   0.4997068231E-02   0.7419128418E-01   0.0000000000E+00  -0.3689202956E-01   0.0000000000E+00   0.0000000000E+00   0.0000000000E+00   0.0000000000E+00   0.0000000000E+00   0.0000000000E+00   0.1204084587E+01   0.2200210403E-12   0.2200210403E-12   0.2856458930E-15  -0.2096504647E-15  -0.1065752400E-15
   0.1064191284E+01   0.9681050387E+00   0.9681050387E+00  -0.1000000000E-01   0.4997068231E-02   0.4997068231E-02   0.7419128418E-01  -0.3689202956E-01  -0.3689202956E-01   0.0000000000E+00   0.0000000000E+00   0.0000000000E+00   0.0000000000E+00   0.0000000000E+00   0.0000000000E+00   0.1204084587E+01   0.2326345187E-12   0.2325316522E-12   0.1493585876E-15   0.1901075150E-15   0.6136381698E-16
   0.0000000000E+00   0.9681050387E+00   0.9681050387E+00   0.0000000000E+00   0.4997068231E-02   0.4997068231E-02   0.0000000000E+00  -0.3689202956E-01  -0.3689202956E-01   0.0000000000E+00   0.0000000000E+00   0.0000000000E+00   0.0000000000E+00   0.0000000000E+00   0.0000000000E+00   0.1204084587E+01   0.2545815712E-12   0.2544447456E-12   0.6646594046E-16   0.5545440397E-16  -0.5205123906E-17
   0.2128382568E+01   0.0000000000E+00  -0.1571160748E-18  -0.2000000000E-01   0.0000000000E+00   0.3188096813E-16   0.1483825684E+00   0.0000000000E+00  -0.3203808420E-16   0.0000000000E+00   0.0000000000E+00   0.0000000000E+00   0.0000000000E+00   0.0000000000E+00   0.0000000000E+00   0.1204084587E+01   0.2443230309E-12   0.2442339459E-12   0.3763629858E-16   0.3662958509E-15   0.3675449802E-17
   0.2128382568E+01   0.9681050387E+00   0.2490452150E-17  -0.2000000000E-01   0.4997068231E-02   0.1794905386E-16   0.1483825684E+00  -0.3689202956E-01  -0.1545860171E-16   0.0000000000E+00   0.0000000000E+00   0.0000000000E+00   0.0000000000E+00   0.0000000000E+00   0.0000000000E+00   0.1204084587E+01   0.2369576602E-12   0.2370981785E-12   0.2222006108E-15  -0.3001774975E-15  -0.9156267514E-16
   0.2128382568E+01   0.0000000000E+00   0.9681050387E+00  -0.2000000000E-01   0.0000000000E+00   0.4997068231E-02   0.1483825684E+00   0.0000000000E+00  -0.3689202956E-01   0.0000000000E+00   0.0000000000E+00   0.0000000000E+00   0.0000000000E+00   0.0000000000E+00   0.0000000000E+00   0.1204084587E+01   0.2505722028E-12   0.2505345510E-12  -0.6141325806E-16   0.6371053860E-16   0.9014374616E-16
   0.2128382568E+01   0.9681050387E+00   0.9681050387E+00  -0.2000000000E-01   0.4997068231E-02   0.4997068231E-02   0.1483825684E+00  -0.3689202956E-01  -0.3689202956E-01   0.0000000000E+00   0.0000000000E+00   0.0000000000E+00   0.0000000000E+00   0.0000000000E+00   0.0000000000E+00   0.1204084587E+01   0.2224421229E-12   0.2226340745E-12  -0.2128086165E-15  -0.9896118395E-16  -0.3806992594E-16
     1     2     3     4     5     6     7     8
     2     9    10     3     6    11    12     7
 VARIABLES = X,Y,Z,DU1,DU2,DU3,U1,U2,U3,e11,e22,e33,e12,e13,e23,S11,S22,S33,S12,S13,S23
 ZONE, T="0.3729D+01" F=FEPOINT, I=   12 J=    2 ET=BRICK
   0.0000000000E+00   0.0000000000E+00   0.0000000000E+00   0.0000000000E+00   0.0000000000E+00   0.0000000000E+00   0.0000000000E+00   0.0000000000E+00   0.0000000000E+00   0.0000000000E+00   0.0000000000E+00   0.0000000000E+00   0.0000000000E+00   0.0000000000E+00   0.0000000000E+00   0.1183824715E+01   0.5291982296E-12   0.5292484420E-12  -0.6225681085E-17  -0.3867442190E-16  -0.3808254731E-16
   0.1054191284E+01   0.0000000000E+00  -0.3704346914E-17  -0.1000000000E-01   0.0000000000E+00  -0.9332386388E-17   0.6419128418E-01   0.0000000000E+00   0.5628039474E-17   0.0000000000E+00   0.0000000000E+00   0.0000000000E+00   0.0000000000E+00   0.0000000000E+00   0.0000000000E+00   0.1183824715E+01   0.5348834125E-12   0.5348707495E-12   0.3705597645E-15   0.3817680818E-15   0.9873090318E-18
   0.1054191284E+01   0.9731016620E+00  -0.4263278824E-17  -0.1000000000E-01   0.4996623355E-02  -0.7971609117E-17   0.6419128418E-01  -0.3189496133E-01   0.3708330293E-17   0.0000000000E+00   0.0000000000E+00   0.0000000000E+00   0.0000000000E+00   0.0000000000E+00   0.0000000000E+00   0.1183824714E+01   0.5349053282E-12   0.5348926887E-12   0.3676103839E-15  -0.2776675203E-15  -0.9757935850E-17
   0.0000000000E+00   0.9731016620E+00  -0.2025549949E-17   0.0000000000E+00   0.4996623355E-02  -0.1229362675E-16   0.0000000000E+00  -0.3189496133E-01   0.1026807680E-16   0.0000000000E+00   0.0000000000E+00   0.0000000000E+00   0.0000000000E+00   0.0000000000E+00   0.0000000000E+00   0.1183824714E+01   0.5447618618E-12   0.5446803643E-12  -0.6823071812E-16  -0.6501101488E-16  -0.1977566312E-16
   0.0000000000E+00   0.0000000000E+00   0.9731016620E+00   0.0000000000E+00   0.0000000000E+00   0.4996623355E-02   0.0000000000E+00   0.0000000000E+00  -0.3189496133E-01   0.0000000000E+00   0.0000000000E+00   0.0000000000E+00   0.0000000000E+00   0.0000000000E+00   0.0000000000E+00   0.1183824714E+01   0.5378001147E-12   0.5378203340E-12   0.2637103785E-16  -0.3369376238E-16  -0.6985464672E-16
   0.1054191284E+01   0.0000000000E+00   0.9731016620E+00  -0.1000000000E-01   0.0000000000E+00   0.4996623355E-02   0.6419128418E-01   0.0000000000E+00  -0.3189496133E-01   0.0000000000E+00   0.0000000000E+00   0.0000000000E+00   0.0000000000E+00   0.0000000000E+00   0.0000000000E+00   0.1183824714E+01   0.5308009375E-12   0.5308481794E-12  -0.3893895858E-15   0.3184139047E-15   0.5576477043E-16
   0.1054191284E+01   0.9731016620E+00   0.9731016620E+00  -0.1000000000E-01   0.4996623355E-02   0.4996623355E-02   0.6419128418E-01  -0.3189496133E-01  -0.3189496133E-01   0.0000000000E+00   0.0000000000E+00   0.0000000000E+00   0.0000000000E+00   0.0000000000E+00   0.0000000000E+00   0.1183824714E+01   0.5307191059E-12   0.5307663415E-12  -0.3316601092E-15  -0.2598903772E-15   0.3238586335E-16
   0.0000000000E+00   0.9731016620E+00   0.9731016620E+00   0.0000000000E+00   0.4996623355E-02   0.4996623355E-02   0.0000000000E+00  -0.3189496133E-01  -0.3189496133E-01   0.0000000000E+00   0.0000000000E+00   0.0000000000E+00   0.0000000000E+00   0.0000000000E+00   0.0000000000E+00   0.1183824714E+01   0.5223702988E-12   0.5222590155E-12   0.6287665799E-16   0.3670632223E-16  -0.1906278587E-15
   0.2108382568E+01   0.0000000000E+00  -0.5157475278E-17  -0.2000000000E-01   0.0000000000E+00  -0.5000359204E-17   0.1283825684E+00   0.0000000000E+00  -0.1571160748E-18   0.0000000000E+00   0.0000000000E+00   0.0000000000E+00   0.0000000000E+00   0.0000000000E+00   0.0000000000E+00   0.1183824715E+01   0.5383807398E-12   0.5383373479E-12  -0.6991952840E-16  -0.2041507276E-15   0.7243858373E-16
   0.2108382568E+01   0.9731016620E+00   0.1052617922E-17  -0.2000000000E-01   0.4996623355E-02  -0.1437834229E-17   0.1283825684E+00  -0.3189496133E-01   0.2490452150E-17   0.0000000000E+00   0.0000000000E+00   0.0000000000E+00   0.0000000000E+00   0.0000000000E+00   0.0000000000E+00   0.1183824714E+01   0.5228054224E-12   0.5228935652E-12  -0.7588427401E-16   0.5723659094E-16  -0.6325958796E-16
   0.2108382568E+01   0.0000000000E+00   0.9731016620E+00  -0.2000000000E-01   0.0000000000E+00   0.4996623355E-02   0.1283825684E+00   0.0000000000E+00  -0.3189496133E-01   0.0000000000E+00   0.0000000000E+00   0.0000000000E+00   0.0000000000E+00   0.0000000000E+00   0.0000000000E+00   0.1183824714E+01   0.5319666460E-12   0.5319211007E-12   0.7007325086E-16  -0.1162375433E-15   0.4979830191E-16
   0.2108382568E+01   0.9731016620E+00   0.9731016620E+00  -0.2000000000E-01   0.4996623355E-02   0.4996623355E-02   0.1283825684E+00  -0.3189496133E-01  -0.3189496133E-01   0.0000000000E+00   0.0000000000E+00   0.0000000000E+00   0.0000000000E+00   0.0000000000E+00   0.0000000000E+00   0.1183824714E+01   0.5474403748E-12   0.5475263790E-12   0.2115885335E-16   0.6468929019E-16   0.7726043362E-16
     1     2     3     4     5     6     7     8
     2     9    10     3     6    11    12     7
 VARIABLES = X,Y,Z,DU1,DU2,DU3,U1,U2,U3,e11,e22,e33,e12,e13,e23,S11,S22,S33,S12,S13,S23
 ZONE, T="0.3779D+01" F=FEPOINT, I=   12 J=    2 ET=BRICK
   0.0000000000E+00   0.0000000000E+00   0.0000000000E+00   0.0000000000E+00   0.0000000000E+00   0.0000000000E+00   0.0000000000E+00   0.0000000000E+00   0.0000000000E+00   0.0000000000E+00   0.0000000000E+00   0.0000000000E+00   0.0000000000E+00   0.0000000000E+00   0.0000000000E+00   0.1159863351E+01   0.1526071921E-11   0.1526063365E-11  -0.3536732013E-16   0.3051368749E-16   0.1651335506E-15
   0.1044191284E+01   0.0000000000E+00   0.9629083347E-17  -0.1000000000E-01   0.0000000000E+00   0.1333343026E-16   0.5419128418E-01   0.0000000000E+00  -0.3704346914E-17   0.0000000000E+00   0.0000000000E+00   0.0000000000E+00   0.0000000000E+00   0.0000000000E+00   0.0000000000E+00   0.1159863351E+01   0.1515475679E-11   0.1515359094E-11  -0.2122115061E-15   0.5065152385E-16  -0.1201694325E-16
   0.1044191284E+01   0.9780976685E+00   0.8360445572E-17  -0.1000000000E-01   0.4996006439E-02   0.1262372440E-16   0.5419128418E-01  -0.2689833797E-01  -0.4263278824E-17   0.0000000000E+00   0.0000000000E+00   0.0000000000E+00   0.0000000000E+00   0.0000000000E+00   0.0000000000E+00   0.1159863351E+01   0.1522081519E-11   0.1522070377E-11  -0.2738897774E-15   0.1756511882E-16  -0.4888257246E-16
   0.0000000000E+00   0.9780976685E+00   0.1591938462E-16   0.0000000000E+00   0.4996006439E-02   0.1794493457E-16   0.0000000000E+00  -0.2689833797E-01  -0.2025549949E-17   0.0000000000E+00   0.0000000000E+00   0.0000000000E+00   0.0000000000E+00   0.0000000000E+00   0.0000000000E+00   0.1159863351E+01   0.1511532169E-11   0.1511470892E-11  -0.1072168717E-15  -0.1043224965E-16  -0.2262632567E-18
   0.0000000000E+00   0.0000000000E+00   0.9780976685E+00   0.0000000000E+00   0.0000000000E+00   0.4996006439E-02   0.0000000000E+00   0.0000000000E+00  -0.2689833797E-01   0.0000000000E+00   0.0000000000E+00   0.0000000000E+00   0.0000000000E+00   0.0000000000E+00   0.0000000000E+00   0.1159863351E+01   0.1527739197E-11   0.1527967889E-11   0.8926241872E-17  -0.5273450224E-16  -0.3319471655E-16
   0.1044191284E+01   0.0000000000E+00   0.9780976685E+00  -0.1000000000E-01   0.0000000000E+00   0.4996006439E-02   0.5419128418E-01   0.0000000000E+00  -0.2689833797E-01   0.0000000000E+00   0.0000000000E+00   0.0000000000E+00   0.0000000000E+00   0.0000000000E+00   0.0000000000E+00   0.1159863351E+01   0.1525022041E-11   0.1525063622E-11  -0.2103118065E-16  -0.4530718595E-16   0.6110518208E-16
   0.1044191284E+01   0.9780976685E+00   0.9780976685E+00  -0.1000000000E-01   0.4996006439E-02   0.4996006439E-02   0.5419128418E-01  -0.2689833797E-01  -0.2689833797E-01   0.0000000000E+00   0.0000000000E+00   0.0000000000E+00   0.0000000000E+00   0.0000000000E+00   0.0000000000E+00   0.1159863351E+01   0.1500422582E-11   0.1500569606E-11   0.6640783621E-17   0.8441514433E-16   0.2718408636E-16
   0.0000000000E+00   0.9780976685E+00   0.9780976685E+00   0.0000000000E+00   0.4996006439E-02   0.4996006439E-02   0.0000000000E+00  -0.2689833797E-01  -0.2689833797E-01   0.0000000000E+00   0.0000000000E+00   0.0000000000E+00   0.0000000000E+00   0.0000000000E+00   0.0000000000E+00   0.1159863351E+01   0.1497577076E-11   0.1497753047E-11   0.1122612425E-15  -0.4944363531E-17  -0.1239880570E-15
   0.2088382568E+01   0.0000000000E+00   0.1976815763E-16  -0.2000000000E-01   0.0000000000E+00   0.2492563291E-16   0.1083825684E+00   0.0000000000E+00  -0.5157475278E-17   0.0000000000E+00   0.0000000000E+00   0.0000000000E+00   0.0000000000E+00   0.0000000000E+00   0.0000000000E+00   0.1159863351E+01   0.1504879437E-11   0.1504654823E-11  -0.1470415092E-16   0.2427428982E-16  -0.1205715556E-15
   0.2088382568E+01   0.9780976685E+00   0.3096498604E-17  -0.2000000000E-01   0.4996006439E-02   0.2043880683E-17   0.1083825684E+00  -0.2689833797E-01   0.1052617922E-17   0.0000000000E+00   0.0000000000E+00   0.0000000000E+00   0.0000000000E+00   0.0000000000E+00   0.0000000000E+00   0.1159863351E+01   0.1532630868E-11   0.1532669863E-11  -0.7387339087E-16  -0.5979135584E-16  -0.8798165776E-16
   0.2088382568E+01   0.0000000000E+00   0.9780976685E+00  -0.2000000000E-01   0.0000000000E+00   0.4996006439E-02   0.1083825684E+00   0.0000000000E+00  -0.2689833797E-01   0.0000000000E+00   0.0000000000E+00   0.0000000000E+00   0.0000000000E+00   0.0000000000E+00   0.0000000000E+00   0.1159863351E+01   0.1522304886E-11   0.1522159354E-11   0.9023738178E-16  -0.2031669970E-15   0.2228560872E-16
   0.2088382568E+01   0.9780976685E+00   0.9780976685E+00  -0.2000000000E-01   0.4996006439E-02   0.4996006439E-02   0.1083825684E+00  -0.2689833797E-01  -0.2689833797E-01   0.0000000000E+00   0.0000000000E+00   0.0000000000E+00   0.0000000000E+00   0.0000000000E+00   0.0000000000E+00   0.1159863350E+01   0.1503268087E-11   0.1503386165E-11   0.8772360695E-16   0.1436698858E-15   0.9000558568E-16
     1     2     3     4     5     6     7     8
     2     9    10     3     6    11    12     7
 VARIABLES = X,Y,Z,DU1,DU2,DU3,U1,U2,U3,e11,e22,e33,e12,e13,e23,S11,S22,S33,S12,S13,S23
 ZONE, T="0.3829D+01" F=FEPOINT, I=   12 J=    2 ET=BRICK
   0.0000000000E+00   0.0000000000E+00   0.0000000000E+00   0.0000000000E+00   0.0000000000E+00   0.0000000000E+00   0.0000000000E+00   0.0000000000E+00   0.0000000000E+00   0.0000000000E+00   0.0000000000E+00   0.0000000000E+00   0.0000000000E+00   0.0000000000E+00   0.0000000000E+00   0.1130398864E+01   0.5444713929E-11   0.5444704347E-11  -0.1867309647E-16  -0.2082604857E-15  -0.6643289772E-16
   0.1034191284E+01   0.0000000000E+00  -0.1351075789E-16  -0.1000000000E-01   0.0000000000E+00  -0.2313984123E-16   0.4419128418E-01   0.0000000000E+00   0.9629083347E-17   0.0000000000E+00   0.0000000000E+00   0.0000000000E+00   0.0000000000E+00   0.0000000000E+00   0.0000000000E+00   0.1130398864E+01   0.5462834384E-11   0.5462986472E-11   0.1183661795E-15   0.2224426891E-15   0.1009431884E-15
   0.1034191284E+01   0.9830927577E+00  -0.5842598893E-17  -0.1000000000E-01   0.4995089252E-02  -0.1420304446E-16   0.4419128418E-01  -0.2190233153E-01   0.8360445572E-17   0.0000000000E+00   0.0000000000E+00   0.0000000000E+00   0.0000000000E+00   0.0000000000E+00   0.0000000000E+00   0.1130398864E+01   0.5463237653E-11   0.5463166043E-11   0.6730977150E-16   0.4093403931E-16   0.5425431212E-16
   0.0000000000E+00   0.9830927577E+00  -0.2219686687E-18   0.0000000000E+00   0.4995089252E-02  -0.1614135329E-16   0.0000000000E+00  -0.2190233153E-01   0.1591938462E-16   0.0000000000E+00   0.0000000000E+00   0.0000000000E+00   0.0000000000E+00   0.0000000000E+00   0.0000000000E+00   0.1130398864E+01   0.5460124782E-11   0.5460027636E-11   0.4586547049E-16  -0.5192502362E-16   0.1086260415E-15
   0.0000000000E+00   0.0000000000E+00   0.9830927577E+00   0.0000000000E+00   0.0000000000E+00   0.4995089252E-02   0.0000000000E+00   0.0000000000E+00  -0.2190233153E-01   0.0000000000E+00   0.0000000000E+00   0.0000000000E+00   0.0000000000E+00   0.0000000000E+00   0.0000000000E+00   0.1130398864E+01   0.5479104985E-11   0.5479095406E-11   0.4313803173E-17  -0.7461167407E-16  -0.3917298020E-16
   0.1034191284E+01   0.0000000000E+00   0.9830927577E+00  -0.1000000000E-01   0.0000000000E+00   0.4995089252E-02   0.4419128418E-01   0.0000000000E+00  -0.2190233153E-01   0.0000000000E+00   0.0000000000E+00   0.0000000000E+00   0.0000000000E+00   0.0000000000E+00   0.0000000000E+00   0.1130398864E+01   0.5479360568E-11   0.5479512691E-11  -0.1479190756E-15   0.1717826667E-15  -0.5879746357E-17
   0.1034191284E+01   0.9830927577E+00   0.9830927577E+00  -0.1000000000E-01   0.4995089252E-02   0.4995089252E-02   0.4419128418E-01  -0.2190233153E-01  -0.2190233153E-01   0.0000000000E+00   0.0000000000E+00   0.0000000000E+00   0.0000000000E+00   0.0000000000E+00   0.0000000000E+00   0.1130398864E+01   0.5458862883E-11   0.5458791293E-11  -0.2458219564E-16  -0.1019955267E-15  -0.1102255025E-15
   0.0000000000E+00   0.9830927577E+00   0.9830927577E+00   0.0000000000E+00   0.4995089252E-02   0.4995089252E-02   0.0000000000E+00  -0.2190233153E-01  -0.2190233153E-01   0.0000000000E+00   0.0000000000E+00   0.0000000000E+00   0.0000000000E+00   0.0000000000E+00   0.0000000000E+00   0.1130398864E+01   0.5473940755E-11   0.5473843594E-11   0.2752605584E-17  -0.4070710736E-16  -0.7768287535E-16
   0.2068382568E+01   0.0000000000E+00  -0.1952922694E-16  -0.2000000000E-01   0.0000000000E+00  -0.3929738457E-16   0.8838256836E-01   0.0000000000E+00   0.1976815763E-16   0.0000000000E+00   0.0000000000E+00   0.0000000000E+00   0.0000000000E+00   0.0000000000E+00   0.0000000000E+00   0.1130398864E+01   0.5467002606E-11   0.5467001940E-11   0.6818062990E-16  -0.1868833020E-15   0.3939762192E-16
   0.2068382568E+01   0.9830927577E+00  -0.1550402347E-16  -0.2000000000E-01   0.4995089252E-02  -0.1860052207E-16   0.8838256836E-01  -0.2190233153E-01   0.3096498604E-17   0.0000000000E+00   0.0000000000E+00   0.0000000000E+00   0.0000000000E+00   0.0000000000E+00   0.0000000000E+00   0.1130398864E+01   0.5462407876E-11   0.5462277470E-11   0.1608244180E-16   0.2337336591E-15   0.5523380065E-17
   0.2068382568E+01   0.0000000000E+00   0.9830927577E+00  -0.2000000000E-01   0.0000000000E+00   0.4995089252E-02   0.8838256836E-01   0.0000000000E+00  -0.2190233153E-01   0.0000000000E+00   0.0000000000E+00   0.0000000000E+00   0.0000000000E+00   0.0000000000E+00   0.0000000000E+00   0.1130398864E+01   0.5465265164E-11   0.5465264454E-11  -0.1665140252E-16  -0.2877669700E-15  -0.1426443567E-17
   0.2068382568E+01   0.9830927577E+00   0.9830927577E+00  -0.2000000000E-01   0.4995089252E-02   0.4995089252E-02   0.8838256836E-01  -0.2190233153E-01  -0.2190233153E-01   0.0000000000E+00   0.0000000000E+00   0.0000000000E+00   0.0000000000E+00   0.0000000000E+00   0.0000000000E+00   0.1130398864E+01   0.5440241197E-11   0.5440110878E-11  -0.6825112870E-16   0.1933277637E-16  -0.3830580679E-16
     1     2     3     4     5     6     7     8
     2     9    10     3     6    11    12     7
 VARIABLES = X,Y,Z,DU1,DU2,DU3,U1,U2,U3,e11,e22,e33,e12,e13,e23,S11,S22,S33,S12,S13,S23
 ZONE, T="0.3879D+01" F=FEPOINT, I=   12 J=    2 ET=BRICK
   0.0000000000E+00   0.0000000000E+00   0.0000000000E+00   0.0000000000E+00   0.0000000000E+00   0.0000000000E+00   0.0000000000E+00   0.0000000000E+00   0.0000000000E+00   0.0000000000E+00   0.0000000000E+00   0.0000000000E+00   0.0000000000E+00   0.0000000000E+00   0.0000000000E+00   0.1091811235E+01   0.2904244507E-10   0.2904245994E-10   0.1126254702E-16   0.1062737550E-15   0.3749093213E-17
   0.1024191284E+01   0.0000000000E+00   0.2604449569E-17  -0.1000000000E-01   0.0000000000E+00   0.1611520745E-16   0.3419128418E-01   0.0000000000E+00  -0.1351075789E-16   0.0000000000E+00   0.0000000000E+00   0.0000000000E+00   0.0000000000E+00   0.0000000000E+00   0.0000000000E+00   0.1091811235E+01   0.2904874813E-10   0.2904862749E-10  -0.1090188644E-15  -0.1899464226E-15  -0.1006716919E-15
   0.1024191284E+01   0.9880863264E+00  -0.2379476176E-17  -0.1000000000E-01   0.4993568728E-02   0.3463122717E-17   0.3419128418E-01  -0.1690724228E-01  -0.5842598893E-17   0.0000000000E+00   0.0000000000E+00   0.0000000000E+00   0.0000000000E+00   0.0000000000E+00   0.0000000000E+00   0.1091811235E+01   0.2905062096E-10   0.2905068205E-10  -0.1409417480E-15   0.4481523172E-16  -0.4905819879E-16
   0.0000000000E+00   0.9880863264E+00  -0.4169271125E-17   0.0000000000E+00   0.4993568728E-02  -0.3947302456E-17   0.0000000000E+00  -0.1690724228E-01  -0.2219686687E-18   0.0000000000E+00   0.0000000000E+00   0.0000000000E+00   0.0000000000E+00   0.0000000000E+00   0.0000000000E+00   0.1091811235E+01   0.2904942323E-10   0.2904959109E-10   0.7587777071E-16  -0.1181559009E-16  -0.5281675880E-16
   0.0000000000E+00   0.0000000000E+00   0.9880863264E+00   0.0000000000E+00   0.0000000000E+00   0.4993568728E-02   0.0000000000E+00   0.0000000000E+00  -0.1690724228E-01   0.0000000000E+00   0.0000000000E+00   0.0000000000E+00   0.0000000000E+00   0.0000000000E+00   0.0000000000E+00   0.1091811235E+01   0.2905033020E-10   0.2905021259E-10  -0.8868215601E-17  -0.4493199164E-16  -0.1131655515E-15
   0.1024191284E+01   0.0000000000E+00   0.9880863264E+00  -0.1000000000E-01   0.0000000000E+00   0.4993568728E-02   0.3419128418E-01   0.0000000000E+00  -0.1690724228E-01   0.0000000000E+00   0.0000000000E+00   0.0000000000E+00   0.0000000000E+00   0.0000000000E+00   0.0000000000E+00   0.1091811235E+01   0.2904000816E-10   0.2903993745E-10   0.4655110080E-16   0.2969103680E-16   0.1387418206E-15
   0.1024191284E+01   0.9880863264E+00   0.9880863264E+00  -0.1000000000E-01   0.4993568728E-02   0.4993568728E-02   0.3419128418E-01  -0.1690724228E-01  -0.1690724228E-01   0.0000000000E+00   0.0000000000E+00   0.0000000000E+00   0.0000000000E+00   0.0000000000E+00   0.0000000000E+00   0.1091811234E+01   0.2904710047E-10   0.2904721151E-10  -0.8367897907E-17  -0.1801168739E-15   0.1238591178E-16
   0.0000000000E+00   0.9880863264E+00   0.9880863264E+00   0.0000000000E+00   0.4993568728E-02   0.4993568728E-02   0.0000000000E+00  -0.1690724228E-01  -0.1690724228E-01   0.0000000000E+00   0.0000000000E+00   0.0000000000E+00   0.0000000000E+00   0.0000000000E+00   0.0000000000E+00   0.1091811234E+01   0.2905488486E-10   0.2905492023E-10   0.5580492183E-19   0.1160886913E-15   0.2773773067E-15
   0.2048382568E+01   0.0000000000E+00   0.4625691132E-17  -0.2000000000E-01   0.0000000000E+00   0.2415491807E-16   0.6838256836E-01   0.0000000000E+00  -0.1952922694E-16   0.0000000000E+00   0.0000000000E+00   0.0000000000E+00   0.0000000000E+00   0.0000000000E+00   0.0000000000E+00   0.1091811235E+01   0.2905174539E-10   0.2905177084E-10   0.1158520733E-15  -0.1536821499E-15  -0.1027759289E-16
   0.2048382568E+01   0.9880863264E+00   0.1797914941E-17  -0.2000000000E-01   0.4993568728E-02   0.1730193841E-16   0.6838256836E-01  -0.1690724228E-01  -0.1550402347E-16   0.0000000000E+00   0.0000000000E+00   0.0000000000E+00   0.0000000000E+00   0.0000000000E+00   0.0000000000E+00   0.1091811235E+01   0.2904832151E-10   0.2904855740E-10   0.2432285415E-16   0.3920461871E-15  -0.3675503508E-16
   0.2048382568E+01   0.0000000000E+00   0.9880863264E+00  -0.2000000000E-01   0.0000000000E+00   0.4993568728E-02   0.6838256836E-01   0.0000000000E+00  -0.1690724228E-01   0.0000000000E+00   0.0000000000E+00   0.0000000000E+00   0.0000000000E+00   0.0000000000E+00   0.0000000000E+00   0.1091811235E+01   0.2904218094E-10   0.2904196636E-10  -0.2740999624E-16   0.2424584242E-15  -0.1229422579E-15
   0.2048382568E+01   0.9880863264E+00   0.9880863264E+00  -0.2000000000E-01   0.4993568728E-02   0.4993568728E-02   0.6838256836E-01  -0.1690724228E-01  -0.1690724228E-01   0.0000000000E+00   0.0000000000E+00   0.0000000000E+00   0.0000000000E+00   0.0000000000E+00   0.0000000000E+00   0.1091811234E+01   0.2905178021E-10   0.2905177626E-10   0.1853127091E-16  -0.1585917735E-15   0.1442382762E-15
     1     2     3     4     5     6     7     8
     2     9    10     3     6    11    12     7
 VARIABLES = X,Y,Z,DU1,DU2,DU3,U1,U2,U3,e11,e22,e33,e12,e13,e23,S11,S22,S33,S12,S13,S23
 ZONE, T="0.3929D+01" F=FEPOINT, I=   12 J=    2 ET=BRICK
   0.0000000000E+00   0.0000000000E+00   0.0000000000E+00   0.0000000000E+00   0.0000000000E+00   0.0000000000E+00   0.0000000000E+00   0.0000000000E+00   0.0000000000E+00   0.0000000000E+00   0.0000000000E+00   0.0000000000E+00   0.0000000000E+00   0.0000000000E+00   0.0000000000E+00   0.1034782030E+01   0.3289645015E-09   0.3289644261E-09  -0.3024999630E-16   0.5013318193E-16  -0.9432576256E-16
   0.1014191284E+01   0.0000000000E+00   0.2663778792E-17  -0.1000000000E-01   0.0000000000E+00   0.5932922285E-19   0.2419128418E-01   0.0000000000E+00   0.2604449569E-17   0.0000000000E+00   0.0000000000E+00   0.0000000000E+00   0.0000000000E+00   0.0000000000E+00   0.0000000000E+00   0.1034782030E+01   0.3289681985E-09   0.3289682856E-09   0.2696965278E-16   0.2211679102E-16  -0.4858358221E-16
   0.1014191284E+01   0.9930768216E+00   0.5105385998E-18  -0.1000000000E-01   0.4990495133E-02   0.2890014776E-17   0.2419128418E-01  -0.1191367355E-01  -0.2379476176E-17   0.0000000000E+00   0.0000000000E+00   0.0000000000E+00   0.0000000000E+00   0.0000000000E+00   0.0000000000E+00   0.1034782030E+01   0.3289679469E-09   0.3289679972E-09   0.6884728786E-16   0.7221388371E-16   0.7313408531E-16
   0.0000000000E+00   0.9930768216E+00   0.3658176313E-18   0.0000000000E+00   0.4990495133E-02   0.4535088756E-17   0.0000000000E+00  -0.1191367355E-01  -0.4169271125E-17   0.0000000000E+00   0.0000000000E+00   0.0000000000E+00   0.0000000000E+00   0.0000000000E+00   0.0000000000E+00   0.1034782030E+01   0.3289763366E-09   0.3289761691E-09  -0.1912400562E-15  -0.7232662348E-16   0.4755531506E-16
   0.0000000000E+00   0.0000000000E+00   0.9930768216E+00   0.0000000000E+00   0.0000000000E+00   0.4990495133E-02   0.0000000000E+00   0.0000000000E+00  -0.1191367355E-01   0.0000000000E+00   0.0000000000E+00   0.0000000000E+00   0.0000000000E+00   0.0000000000E+00   0.0000000000E+00   0.1034782030E+01   0.3289711860E-09   0.3289711927E-09  -0.1769450743E-16   0.1804951644E-17   0.8912433680E-16
   0.1014191284E+01   0.0000000000E+00   0.9930768216E+00  -0.1000000000E-01   0.0000000000E+00   0.4990495133E-02   0.2419128418E-01   0.0000000000E+00  -0.1191367355E-01   0.0000000000E+00   0.0000000000E+00   0.0000000000E+00   0.0000000000E+00   0.0000000000E+00   0.0000000000E+00   0.1034782030E+01   0.3289700125E-09   0.3289701095E-09   0.7620100891E-16  -0.8209333396E-16  -0.3446127612E-17
   0.1014191284E+01   0.9930768216E+00   0.9930768216E+00  -0.1000000000E-01   0.4990495133E-02   0.4990495133E-02   0.2419128418E-01  -0.1191367355E-01  -0.1191367355E-01   0.0000000000E+00   0.0000000000E+00   0.0000000000E+00   0.0000000000E+00   0.0000000000E+00   0.0000000000E+00   0.1034782030E+01   0.3289672226E-09   0.3289672828E-09   0.2598216924E-16  -0.7970539424E-16   0.1042208010E-15
   0.0000000000E+00   0.9930768216E+00   0.9930768216E+00   0.0000000000E+00   0.4990495133E-02   0.4990495133E-02   0.0000000000E+00  -0.1191367355E-01  -0.1191367355E-01   0.0000000000E+00   0.0000000000E+00   0.0000000000E+00   0.0000000000E+00   0.0000000000E+00   0.0000000000E+00   0.1034782030E+01   0.3289608715E-09   0.3289607863E-09   0.9469826533E-16   0.1102106470E-15   0.1584173566E-16
   0.2028382568E+01   0.0000000000E+00   0.5671623446E-18  -0.2000000000E-01   0.0000000000E+00  -0.4058528787E-17   0.4838256836E-01   0.0000000000E+00   0.4625691132E-17   0.0000000000E+00   0.0000000000E+00   0.0000000000E+00   0.0000000000E+00   0.0000000000E+00   0.0000000000E+00   0.1034782030E+01   0.3289746717E-09   0.3289744994E-09  -0.2382926775E-17  -0.1722609595E-15   0.6155363897E-16
   0.2028382568E+01   0.9930768216E+00   0.4367659392E-17  -0.2000000000E-01   0.4990495133E-02   0.2569744451E-17   0.4838256836E-01  -0.1191367355E-01   0.1797914941E-17   0.0000000000E+00   0.0000000000E+00   0.0000000000E+00   0.0000000000E+00   0.0000000000E+00   0.0000000000E+00   0.1034782030E+01   0.3289623334E-09   0.3289621794E-09   0.1204640400E-15  -0.3507005322E-15  -0.1300033985E-15
   0.2028382568E+01   0.0000000000E+00   0.9930768216E+00  -0.2000000000E-01   0.0000000000E+00   0.4990495133E-02   0.4838256836E-01   0.0000000000E+00  -0.1191367355E-01   0.0000000000E+00   0.0000000000E+00   0.0000000000E+00   0.0000000000E+00   0.0000000000E+00   0.0000000000E+00   0.1034782030E+01   0.3289662837E-09   0.3289663039E-09  -0.8619538704E-16   0.9545634402E-16   0.1189560342E-15
   0.2028382568E+01   0.9930768216E+00   0.9930768216E+00  -0.2000000000E-01   0.4990495133E-02   0.4990495133E-02   0.4838256836E-01  -0.1191367355E-01  -0.1191367355E-01   0.0000000000E+00   0.0000000000E+00   0.0000000000E+00   0.0000000000E+00   0.0000000000E+00   0.0000000000E+00   0.1034782030E+01   0.3289710184E-09   0.3289710570E-09  -0.2966807768E-15   0.1498283797E-15  -0.2617202853E-15
     1     2     3     4     5     6     7     8
     2     9    10     3     6    11    12     7
 VARIABLES = X,Y,Z,DU1,DU2,DU3,U1,U2,U3,e11,e22,e33,e12,e13,e23,S11,S22,S33,S12,S13,S23
 ZONE, T="0.3979D+01" F=FEPOINT, I=   12 J=    2 ET=BRICK
   0.0000000000E+00   0.0000000000E+00   0.0000000000E+00   0.0000000000E+00   0.0000000000E+00   0.0000000000E+00   0.0000000000E+00   0.0000000000E+00   0.0000000000E+00   0.0000000000E+00   0.0000000000E+00   0.0000000000E+00   0.0000000000E+00   0.0000000000E+00   0.0000000000E+00   0.7585656864E+00   0.2798052907E-14   0.3056925388E-14  -0.1084365984E-16   0.3015565792E-15   0.1152063648E-15
   0.1004191284E+01   0.0000000000E+00   0.4152299075E-17  -0.1000000000E-01   0.0000000000E+00   0.1488520284E-17   0.1419128418E-01   0.0000000000E+00   0.2663778792E-17   0.0000000000E+00   0.0000000000E+00   0.0000000000E+00   0.0000000000E+00   0.0000000000E+00   0.0000000000E+00   0.7585656864E+00   0.2721875231E-14   0.2389102718E-14  -0.4020828671E-15  -0.2635826591E-15  -0.9244541094E-16
   0.1004191284E+01   0.9980307855E+00   0.2268069373E-17  -0.1000000000E-01   0.4953963943E-02   0.1757530773E-17   0.1419128418E-01  -0.6923178418E-02   0.5105385998E-18   0.0000000000E+00   0.0000000000E+00   0.0000000000E+00   0.0000000000E+00   0.0000000000E+00   0.0000000000E+00   0.7585656863E+00   0.7595201564E-15   0.8396155741E-15  -0.5990637563E-15   0.1704944397E-15  -0.1899649329E-15
   0.0000000000E+00   0.9980307855E+00   0.2876630132E-17   0.0000000000E+00   0.4953963943E-02   0.2510812501E-17   0.0000000000E+00  -0.6923178418E-02   0.3658176313E-18   0.0000000000E+00   0.0000000000E+00   0.0000000000E+00   0.0000000000E+00   0.0000000000E+00   0.0000000000E+00   0.7585656863E+00   0.9438119317E-15   0.8360596027E-15  -0.2853290550E-16  -0.3633619794E-16   0.4243782931E-15
   0.0000000000E+00   0.0000000000E+00   0.9980307855E+00   0.0000000000E+00   0.0000000000E+00   0.4953963943E-02   0.0000000000E+00   0.0000000000E+00  -0.6923178418E-02   0.0000000000E+00   0.0000000000E+00   0.0000000000E+00   0.0000000000E+00   0.0000000000E+00   0.0000000000E+00   0.7585656863E+00   0.2302997961E-15   0.4722461253E-15  -0.6703994276E-16  -0.2892504885E-16  -0.1517839931E-15
   0.1004191284E+01   0.0000000000E+00   0.9980307855E+00  -0.1000000000E-01   0.0000000000E+00   0.4953963943E-02   0.1419128418E-01   0.0000000000E+00  -0.6923178418E-02   0.0000000000E+00   0.0000000000E+00   0.0000000000E+00   0.0000000000E+00   0.0000000000E+00   0.0000000000E+00   0.7585656863E+00  -0.4193199196E-14  -0.4492119403E-14   0.3387936114E-15  -0.4990262246E-15   0.1559176610E-15
   0.1004191284E+01   0.9980307855E+00   0.9980307855E+00  -0.1000000000E-01   0.4953963943E-02   0.4953963943E-02   0.1419128418E-01  -0.6923178418E-02  -0.6923178418E-02   0.0000000000E+00   0.0000000000E+00   0.0000000000E+00   0.0000000000E+00   0.0000000000E+00   0.0000000000E+00   0.7585656862E+00   0.4106565136E-14   0.4220512860E-14   0.3718405265E-15   0.4011338916E-15   0.4704405385E-16
   0.0000000000E+00   0.9980307855E+00   0.9980307855E+00   0.0000000000E+00   0.4953963943E-02   0.4953963943E-02   0.0000000000E+00  -0.6923178418E-02  -0.6923178418E-02   0.0000000000E+00   0.0000000000E+00   0.0000000000E+00   0.0000000000E+00   0.0000000000E+00   0.0000000000E+00   0.7585656862E+00   0.8847609405E-15   0.7600824594E-15   0.6898411637E-16   0.3369461160E-16  -0.1070485448E-15
   0.2008382568E+01   0.0000000000E+00   0.5950661337E-17  -0.2000000000E-01   0.0000000000E+00   0.5383498993E-17   0.2838256836E-01   0.0000000000E+00   0.5671623446E-18   0.0000000000E+00   0.0000000000E+00   0.0000000000E+00   0.0000000000E+00   0.0000000000E+00   0.0000000000E+00   0.7585656864E+00   0.6728734026E-14   0.6882729463E-14  -0.5567692617E-16   0.1540662585E-15   0.4101267933E-16
   0.2008382568E+01   0.9980307855E+00   0.4989408154E-17  -0.2000000000E-01   0.4953963943E-02   0.6217487624E-18   0.2838256836E-01  -0.6923178418E-02   0.4367659392E-17   0.0000000000E+00   0.0000000000E+00   0.0000000000E+00   0.0000000000E+00   0.0000000000E+00   0.0000000000E+00   0.7585656863E+00  -0.5068684022E-14  -0.5003854693E-14  -0.2014659932E-15   0.2680110811E-16   0.2473840746E-16
   0.2008382568E+01   0.0000000000E+00   0.9980307855E+00  -0.2000000000E-01   0.0000000000E+00   0.4953963943E-02   0.2838256836E-01   0.0000000000E+00  -0.6923178418E-02   0.0000000000E+00   0.0000000000E+00   0.0000000000E+00   0.0000000000E+00   0.0000000000E+00   0.0000000000E+00   0.7585656863E+00  -0.1619763813E-14  -0.1701519307E-14  -0.2697478369E-15   0.2022705985E-15  -0.1658117076E-15
   0.2008382568E+01   0.9980307855E+00   0.9980307855E+00  -0.2000000000E-01   0.4953963943E-02   0.4953963943E-02   0.2838256836E-01  -0.6923178418E-02  -0.6923178418E-02   0.0000000000E+00   0.0000000000E+00   0.0000000000E+00   0.0000000000E+00   0.0000000000E+00   0.0000000000E+00   0.7585656862E+00   0.4406105555E-14   0.4235183954E-14   0.4110776322E-15  -0.1910917107E-15   0.2495751482E-16
     1     2     3     4     5     6     7     8
     2     9    10     3     6    11    12     7
 VARIABLES = X,Y,Z,DU1,DU2,DU3,U1,U2,U3,e11,e22,e33,e12,e13,e23,S11,S22,S33,S12,S13,S23
 ZONE, T="0.4029D+01" F=FEPOINT, I=   12 J=    2 ET=BRICK
   0.0000000000E+00   0.0000000000E+00   0.0000000000E+00   0.0000000000E+00   0.0000000000E+00   0.0000000000E+00   0.0000000000E+00   0.0000000000E+00   0.0000000000E+00   0.0000000000E+00   0.0000000000E+00   0.0000000000E+00   0.0000000000E+00   0.0000000000E+00   0.0000000000E+00  -0.8663644640E+00  -0.5916976698E-12  -0.5918266289E-12   0.5409646583E-17   0.4712095154E-16   0.6476580319E-16
   0.9941912842E+00   0.0000000000E+00   0.5755908298E-18  -0.1000000000E-01   0.0000000000E+00  -0.3576708246E-17   0.4191284180E-02   0.0000000000E+00   0.4152299075E-17   0.0000000000E+00   0.0000000000E+00   0.0000000000E+00   0.0000000000E+00   0.0000000000E+00   0.0000000000E+00  -0.8663644640E+00  -0.5899222137E-12  -0.5897096361E-12  -0.5738487892E-16   0.4129458640E-16   0.5621786167E-16
   0.9941912842E+00   0.1002759964E+01   0.1555266630E-17  -0.1000000000E-01   0.4729178309E-02  -0.7128027428E-18   0.4191284180E-02  -0.1969214476E-02   0.2268069373E-17   0.0000000000E+00   0.0000000000E+00   0.0000000000E+00   0.0000000000E+00   0.0000000000E+00   0.0000000000E+00  -0.8663644639E+00  -0.5923141681E-12  -0.5923470644E-12  -0.1262823085E-15  -0.1019292304E-15   0.1149407150E-16
   0.0000000000E+00   0.1002759964E+01   0.1315964407E-17   0.0000000000E+00   0.4729178309E-02  -0.1560665725E-17   0.0000000000E+00  -0.1969214476E-02   0.2876630132E-17   0.0000000000E+00   0.0000000000E+00   0.0000000000E+00   0.0000000000E+00   0.0000000000E+00   0.0000000000E+00  -0.8663644639E+00  -0.5871802049E-12  -0.5873245077E-12   0.1631967604E-16   0.4358171413E-16   0.1405265385E-16
   0.0000000000E+00   0.0000000000E+00   0.1002759964E+01   0.0000000000E+00   0.0000000000E+00   0.4729178309E-02   0.0000000000E+00   0.0000000000E+00  -0.1969214476E-02   0.0000000000E+00   0.0000000000E+00   0.0000000000E+00   0.0000000000E+00   0.0000000000E+00   0.0000000000E+00  -0.8663644639E+00  -0.5874086510E-12  -0.5873282974E-12   0.3009442257E-16  -0.1563414437E-15  -0.8131799326E-16
   0.9941912842E+00   0.0000000000E+00   0.1002759964E+01  -0.1000000000E-01   0.0000000000E+00   0.4729178309E-02   0.4191284180E-02   0.0000000000E+00  -0.1969214476E-02   0.0000000000E+00   0.0000000000E+00   0.0000000000E+00   0.0000000000E+00   0.0000000000E+00   0.0000000000E+00  -0.8663644639E+00  -0.5875821811E-12  -0.5875252148E-12  -0.1568411304E-15   0.1364358166E-15   0.4847611603E-16
   0.9941912842E+00   0.1002759964E+01   0.1002759964E+01  -0.1000000000E-01   0.4729178309E-02   0.4729178309E-02   0.4191284180E-02  -0.1969214476E-02  -0.1969214476E-02   0.0000000000E+00   0.0000000000E+00   0.0000000000E+00   0.0000000000E+00   0.0000000000E+00   0.0000000000E+00  -0.8663644638E+00  -0.5898981871E-12  -0.5900866689E-12  -0.8280901317E-16  -0.3001230073E-15   0.4600346646E-16
   0.0000000000E+00   0.1002759964E+01   0.1002759964E+01   0.0000000000E+00   0.4729178309E-02   0.4729178309E-02   0.0000000000E+00  -0.1969214476E-02  -0.1969214476E-02   0.0000000000E+00   0.0000000000E+00   0.0000000000E+00   0.0000000000E+00   0.0000000000E+00   0.0000000000E+00  -0.8663644638E+00  -0.5944413119E-12  -0.5943762188E-12   0.1032241330E-16   0.1692743429E-15  -0.9470536369E-16
   0.1988382568E+01   0.0000000000E+00   0.2317026288E-17  -0.2000000000E-01   0.0000000000E+00  -0.3633635049E-17   0.8382568359E-02   0.0000000000E+00   0.5950661337E-17   0.0000000000E+00   0.0000000000E+00   0.0000000000E+00   0.0000000000E+00   0.0000000000E+00   0.0000000000E+00  -0.8663644640E+00  -0.5889376065E-12  -0.5889577522E-12   0.4847828697E-16  -0.6694171656E-17  -0.6050908774E-16
   0.1988382568E+01   0.1002759964E+01   0.1126191905E-17  -0.2000000000E-01   0.4729178309E-02  -0.3863216250E-17   0.8382568359E-02  -0.1969214476E-02   0.4989408154E-17   0.0000000000E+00   0.0000000000E+00   0.0000000000E+00   0.0000000000E+00   0.0000000000E+00   0.0000000000E+00  -0.8663644638E+00  -0.5931662972E-12  -0.5931359676E-12   0.1316208058E-15  -0.1540111761E-15   0.9008460938E-16
   0.1988382568E+01   0.0000000000E+00   0.1002759964E+01  -0.2000000000E-01   0.0000000000E+00   0.4729178309E-02   0.8382568359E-02   0.0000000000E+00  -0.1969214476E-02   0.0000000000E+00   0.0000000000E+00   0.0000000000E+00   0.0000000000E+00   0.0000000000E+00   0.0000000000E+00  -0.8663644638E+00  -0.5927127417E-12  -0.5928589114E-12  -0.5837447527E-16  -0.3406296046E-15  -0.1105602535E-15
   0.1988382568E+01   0.1002759964E+01   0.1002759964E+01  -0.2000000000E-01   0.4729178309E-02   0.4729178309E-02   0.8382568359E-02  -0.1969214476E-02  -0.1969214476E-02   0.0000000000E+00   0.0000000000E+00   0.0000000000E+00   0.0000000000E+00   0.0000000000E+00   0.0000000000E+00  -0.8663644637E+00  -0.5852394099E-12  -0.5853349951E-12  -0.3605847098E-16   0.2694622588E-15  -0.2153961861E-15
     1     2     3     4     5     6     7     8
     2     9    10     3     6    11    12     7
 VARIABLES = X,Y,Z,DU1,DU2,DU3,U1,U2,U3,e11,e22,e33,e12,e13,e23,S11,S22,S33,S12,S13,S23
 ZONE, T="0.4079D+01" F=FEPOINT, I=   12 J=    2 ET=BRICK
   0.0000000000E+00   0.0000000000E+00   0.0000000000E+00   0.0000000000E+00   0.0000000000E+00   0.0000000000E+00   0.0000000000E+00   0.0000000000E+00   0.0000000000E+00   0.0000000000E+00   0.0000000000E+00   0.0000000000E+00   0.0000000000E+00   0.0000000000E+00   0.0000000000E+00  -0.1046090285E+01  -0.1003239269E-14  -0.9936034247E-15  -0.9571913609E-17  -0.1175856429E-16   0.1646386905E-16
   0.9841912842E+00   0.0000000000E+00   0.9756765290E-18  -0.1000000000E-01   0.0000000000E+00   0.4000856993E-18  -0.5808715820E-02   0.0000000000E+00   0.5755908298E-18   0.0000000000E+00   0.0000000000E+00   0.0000000000E+00   0.0000000000E+00   0.0000000000E+00   0.0000000000E+00  -0.1046090285E+01   0.6230638357E-15   0.6037921464E-15  -0.1026913761E-16   0.4389170248E-17  -0.4555149250E-16
   0.9841912842E+00   0.1007730010E+01  -0.3166980439E-18  -0.1000000000E-01   0.4970045697E-02  -0.1871964674E-17  -0.5808715820E-02   0.2759963833E-02   0.1555266630E-17   0.0000000000E+00   0.0000000000E+00   0.0000000000E+00   0.0000000000E+00   0.0000000000E+00   0.0000000000E+00  -0.1046090285E+01   0.6230638356E-15   0.6282276685E-15  -0.3152459767E-16  -0.1860109742E-16   0.1304717651E-16
   0.0000000000E+00   0.1007730010E+01   0.1874490161E-18   0.0000000000E+00   0.4970045697E-02  -0.1128515391E-17   0.0000000000E+00   0.2759963833E-02   0.1315964407E-17   0.0000000000E+00   0.0000000000E+00   0.0000000000E+00   0.0000000000E+00   0.0000000000E+00   0.0000000000E+00  -0.1046090285E+01   0.7740178163E-15   0.7714358999E-15  -0.8366638181E-16  -0.2890006833E-16  -0.9672301999E-16
   0.0000000000E+00   0.0000000000E+00   0.1007730010E+01   0.0000000000E+00   0.0000000000E+00   0.4970045697E-02   0.0000000000E+00   0.0000000000E+00   0.2759963833E-02   0.0000000000E+00   0.0000000000E+00   0.0000000000E+00   0.0000000000E+00   0.0000000000E+00   0.0000000000E+00  -0.1046090285E+01  -0.9664039916E-15  -0.9567681474E-15  -0.1223565821E-17   0.6398207807E-16   0.6221300613E-16
   0.9841912842E+00   0.0000000000E+00   0.1007730010E+01  -0.1000000000E-01   0.0000000000E+00   0.4970045697E-02  -0.5808715820E-02   0.0000000000E+00   0.2759963833E-02   0.0000000000E+00   0.0000000000E+00   0.0000000000E+00   0.0000000000E+00   0.0000000000E+00   0.0000000000E+00  -0.1046090285E+01  -0.4030359934E-15  -0.4223076827E-15   0.3792033357E-16  -0.3527220838E-16   0.5392837222E-16
   0.9841912842E+00   0.1007730010E+01   0.1007730010E+01  -0.1000000000E-01   0.4970045697E-02   0.4970045697E-02  -0.5808715820E-02   0.2759963833E-02   0.2759963833E-02   0.0000000000E+00   0.0000000000E+00   0.0000000000E+00   0.0000000000E+00   0.0000000000E+00   0.0000000000E+00  -0.1046090285E+01  -0.4030359934E-15  -0.3978721605E-15   0.7424681784E-16   0.1989287685E-16   0.3310050259E-16
   0.0000000000E+00   0.1007730010E+01   0.1007730010E+01   0.0000000000E+00   0.4970045697E-02   0.4970045697E-02   0.0000000000E+00   0.2759963833E-02   0.2759963833E-02   0.0000000000E+00   0.0000000000E+00   0.0000000000E+00   0.0000000000E+00   0.0000000000E+00   0.0000000000E+00  -0.1046090285E+01   0.8108530933E-15   0.8082711770E-15   0.1068680731E-16  -0.2730940620E-17   0.2831974682E-16
   0.1968382568E+01   0.0000000000E+00   0.1079288849E-17  -0.2000000000E-01   0.0000000000E+00  -0.1237737439E-17  -0.1161743164E-01   0.0000000000E+00   0.2317026288E-17   0.0000000000E+00   0.0000000000E+00   0.0000000000E+00   0.0000000000E+00   0.0000000000E+00   0.0000000000E+00  -0.1046090285E+01   0.1699481770E-14   0.1833691792E-14  -0.2119910345E-16   0.1017365464E-15   0.9787398257E-17
   0.1968382568E+01   0.1007730010E+01   0.1449853371E-17  -0.2000000000E-01   0.4970045697E-02   0.3236614663E-18  -0.1161743164E-01   0.2759963833E-02   0.1126191905E-17   0.0000000000E+00   0.0000000000E+00   0.0000000000E+00   0.0000000000E+00   0.0000000000E+00   0.0000000000E+00  -0.1046090285E+01  -0.7777531474E-16  -0.1137367770E-15   0.7500793407E-16  -0.4477394340E-16  -0.5411370902E-17
   0.1968382568E+01   0.0000000000E+00   0.1007730010E+01  -0.2000000000E-01   0.0000000000E+00   0.4970045697E-02  -0.1161743164E-01   0.0000000000E+00   0.2759963833E-02   0.0000000000E+00   0.0000000000E+00   0.0000000000E+00   0.0000000000E+00   0.0000000000E+00   0.0000000000E+00  -0.1046090285E+01   0.2212531663E-14   0.2346741685E-14  -0.4200485732E-16  -0.6258591303E-16  -0.6030170519E-16
   0.1968382568E+01   0.1007730010E+01   0.1007730010E+01  -0.2000000000E-01   0.4970045697E-02   0.4970045697E-02  -0.1161743164E-01   0.2759963833E-02   0.2759963833E-02   0.0000000000E+00   0.0000000000E+00   0.0000000000E+00   0.0000000000E+00   0.0000000000E+00   0.0000000000E+00  -0.1046090285E+01   0.4352745778E-15   0.3993131155E-15  -0.8563696418E-16   0.4060016361E-16  -0.6640908595E-16
     1     2     3     4     5     6     7     8
     2     9    10     3     6    11    12     7
 VARIABLES = X,Y,Z,DU1,DU2,DU3,U1,U2,U3,e11,e22,e33,e12,e13,e23,S11,S22,S33,S12,S13,S23
 ZONE, T="0.4129D+01" F=FEPOINT, I=   12 J=    2 ET=BRICK
   0.0000000000E+00   0.0000000000E+00   0.0000000000E+00   0.0000000000E+00   0.0000000000E+00   0.0000000000E+00   0.0000000000E+00   0.0000000000E+00   0.0000000000E+00   0.0000000000E+00   0.0000000000E+00   0.0000000000E+00   0.0000000000E+00   0.0000000000E+00   0.0000000000E+00  -0.1098931661E+01  -0.4969148895E-08  -0.4969148854E-08  -0.9363190862E-17   0.5581334736E-16   0.4392948331E-16
   0.9741912842E+00   0.0000000000E+00   0.5411892420E-17  -0.1000000000E-01   0.0000000000E+00   0.4436215891E-17  -0.1580871582E-01   0.0000000000E+00   0.9756765290E-18   0.0000000000E+00   0.0000000000E+00   0.0000000000E+00   0.0000000000E+00   0.0000000000E+00   0.0000000000E+00  -0.1098931661E+01  -0.4969151885E-08  -0.4969151968E-08   0.4605369965E-16   0.2752751576E-16  -0.5909608723E-16
   0.9741912842E+00   0.1012721203E+01   0.2461215657E-17  -0.1000000000E-01   0.4991193102E-02   0.2777913701E-17  -0.1580871582E-01   0.7730009530E-02  -0.3166980439E-18   0.0000000000E+00   0.0000000000E+00   0.0000000000E+00   0.0000000000E+00   0.0000000000E+00   0.0000000000E+00  -0.1098931660E+01  -0.4969143771E-08  -0.4969143737E-08   0.3534731589E-16  -0.7184899480E-16  -0.4557239829E-17
   0.0000000000E+00   0.1012721203E+01   0.2889006414E-17   0.0000000000E+00   0.4991193102E-02   0.2701557398E-17   0.0000000000E+00   0.7730009530E-02   0.1874490161E-18   0.0000000000E+00   0.0000000000E+00   0.0000000000E+00   0.0000000000E+00   0.0000000000E+00   0.0000000000E+00  -0.1098931660E+01  -0.4969143305E-08  -0.4969143396E-08  -0.9684261549E-16   0.3445113281E-16   0.1628839338E-16
   0.0000000000E+00   0.0000000000E+00   0.1012721203E+01   0.0000000000E+00   0.0000000000E+00   0.4991193102E-02   0.0000000000E+00   0.0000000000E+00   0.7730009530E-02   0.0000000000E+00   0.0000000000E+00   0.0000000000E+00   0.0000000000E+00   0.0000000000E+00   0.0000000000E+00  -0.1098931660E+01  -0.4969146185E-08  -0.4969146144E-08   0.9643779530E-17  -0.2440430754E-16  -0.2067716155E-16
   0.9741912842E+00   0.0000000000E+00   0.1012721203E+01  -0.1000000000E-01   0.0000000000E+00   0.4991193102E-02  -0.1580871582E-01   0.0000000000E+00   0.7730009530E-02   0.0000000000E+00   0.0000000000E+00   0.0000000000E+00   0.0000000000E+00   0.0000000000E+00   0.0000000000E+00  -0.1098931660E+01  -0.4969150779E-08  -0.4969150862E-08   0.1009842081E-16  -0.3923900666E-16   0.5136801341E-16
   0.9741912842E+00   0.1012721203E+01   0.1012721203E+01  -0.1000000000E-01   0.4991193102E-02   0.4991193102E-02  -0.1580871582E-01   0.7730009530E-02   0.7730009530E-02   0.0000000000E+00   0.0000000000E+00   0.0000000000E+00   0.0000000000E+00   0.0000000000E+00   0.0000000000E+00  -0.1098931660E+01  -0.4969147896E-08  -0.4969147862E-08   0.1991718758E-16  -0.1661356959E-16   0.3086880599E-17
   0.0000000000E+00   0.1012721203E+01   0.1012721203E+01   0.0000000000E+00   0.4991193102E-02   0.4991193102E-02   0.0000000000E+00   0.7730009530E-02   0.7730009530E-02   0.0000000000E+00   0.0000000000E+00   0.0000000000E+00   0.0000000000E+00   0.0000000000E+00   0.0000000000E+00  -0.1098931660E+01  -0.4969153416E-08  -0.4969153507E-08   0.5342780679E-16   0.2415536580E-16  -0.3503137512E-16
   0.1948382568E+01   0.0000000000E+00   0.4479330805E-17  -0.2000000000E-01   0.0000000000E+00   0.3400041956E-17  -0.3161743164E-01   0.0000000000E+00   0.1079288849E-17   0.0000000000E+00   0.0000000000E+00   0.0000000000E+00   0.0000000000E+00   0.0000000000E+00   0.0000000000E+00  -0.1098931661E+01  -0.4969149775E-08  -0.4969149835E-08  -0.1866854191E-16  -0.1402709716E-15  -0.2651930042E-16
   0.1948382568E+01   0.1012721203E+01   0.2655599615E-17  -0.2000000000E-01   0.4991193102E-02   0.1205746244E-17  -0.3161743164E-01   0.7730009530E-02   0.1449853371E-17   0.0000000000E+00   0.0000000000E+00   0.0000000000E+00   0.0000000000E+00   0.0000000000E+00   0.0000000000E+00  -0.1098931660E+01  -0.4969149453E-08  -0.4969149443E-08   0.7218265507E-16   0.1106853344E-15  -0.2818276813E-16
   0.1948382568E+01   0.0000000000E+00   0.1012721203E+01  -0.2000000000E-01   0.0000000000E+00   0.4991193102E-02  -0.3161743164E-01   0.0000000000E+00   0.7730009530E-02   0.0000000000E+00   0.0000000000E+00   0.0000000000E+00   0.0000000000E+00   0.0000000000E+00   0.0000000000E+00  -0.1098931660E+01  -0.4969150328E-08  -0.4969150387E-08  -0.1058612819E-16  -0.9920855755E-16  -0.4998719362E-17
   0.1948382568E+01   0.1012721203E+01   0.1012721203E+01  -0.2000000000E-01   0.4991193102E-02   0.4991193102E-02  -0.3161743164E-01   0.7730009530E-02   0.7730009530E-02   0.0000000000E+00   0.0000000000E+00   0.0000000000E+00   0.0000000000E+00   0.0000000000E+00   0.0000000000E+00  -0.1098931660E+01  -0.4969147390E-08  -0.4969147379E-08  -0.9430563141E-16   0.7677413376E-16  -0.2072068957E-16
     1     2     3     4     5     6     7     8
     2     9    10     3     6    11    12     7
 VARIABLES = X,Y,Z,DU1,DU2,DU3,U1,U2,U3,e11,e22,e33,e12,e13,e23,S11,S22,S33,S12,S13,S23
 ZONE, T="0.4179D+01" F=FEPOINT, I=   12 J=    2 ET=BRICK
   0.0000000000E+00   0.0000000000E+00   0.0000000000E+00   0.0000000000E+00   0.0000000000E+00   0.0000000000E+00   0.0000000000E+00   0.0000000000E+00   0.0000000000E+00   0.0000000000E+00   0.0000000000E+00   0.0000000000E+00   0.0000000000E+00   0.0000000000E+00   0.0000000000E+00  -0.1135652777E+01  -0.4290493062E-10  -0.4290497351E-10   0.1334221995E-16  -0.9967603792E-16   0.1633448124E-17
   0.9641912842E+00   0.0000000000E+00  -0.3619955226E-17  -0.1000000000E-01   0.0000000000E+00  -0.9031847646E-17  -0.2580871582E-01   0.0000000000E+00   0.5411892420E-17   0.0000000000E+00   0.0000000000E+00   0.0000000000E+00   0.0000000000E+00   0.0000000000E+00   0.0000000000E+00  -0.1135652777E+01  -0.4292240473E-10  -0.4292246355E-10  -0.1825481595E-15   0.3095697562E-16   0.4867439933E-16
   0.9641912842E+00   0.1017715082E+01   0.3883396533E-19  -0.1000000000E-01   0.4993879816E-02  -0.2422381692E-17  -0.2580871582E-01   0.1272120263E-01   0.2461215657E-17   0.0000000000E+00   0.0000000000E+00   0.0000000000E+00   0.0000000000E+00   0.0000000000E+00   0.0000000000E+00  -0.1135652777E+01  -0.4292250035E-10  -0.4292255918E-10  -0.1684272928E-15   0.5060768723E-16  -0.2156210338E-17
   0.0000000000E+00   0.1017715082E+01   0.6390797090E-18   0.0000000000E+00   0.4993879816E-02  -0.2249926705E-17   0.0000000000E+00   0.1272120263E-01   0.2889006414E-17   0.0000000000E+00   0.0000000000E+00   0.0000000000E+00   0.0000000000E+00   0.0000000000E+00   0.0000000000E+00  -0.1135652777E+01  -0.4292099093E-10  -0.4292099339E-10  -0.2445162840E-16   0.4033218732E-16  -0.5465629206E-16
   0.0000000000E+00   0.0000000000E+00   0.1017715082E+01   0.0000000000E+00   0.0000000000E+00   0.4993879816E-02   0.0000000000E+00   0.0000000000E+00   0.1272120263E-01   0.0000000000E+00   0.0000000000E+00   0.0000000000E+00   0.0000000000E+00   0.0000000000E+00   0.0000000000E+00  -0.1135652777E+01  -0.4291294114E-10  -0.4291281297E-10  -0.1138971234E-16  -0.9883509978E-17   0.6897384739E-16
   0.9641912842E+00   0.0000000000E+00   0.1017715082E+01  -0.1000000000E-01   0.0000000000E+00   0.4993879816E-02  -0.2580871582E-01   0.0000000000E+00   0.1272120263E-01   0.0000000000E+00   0.0000000000E+00   0.0000000000E+00   0.0000000000E+00   0.0000000000E+00   0.0000000000E+00  -0.1135652777E+01  -0.4292438188E-10  -0.4292440028E-10   0.5042681137E-16   0.5815696411E-17  -0.9101955018E-17
   0.9641912842E+00   0.1017715082E+01   0.1017715082E+01  -0.1000000000E-01   0.4993879816E-02   0.4993879816E-02  -0.2580871582E-01   0.1272120263E-01   0.1272120263E-01   0.0000000000E+00   0.0000000000E+00   0.0000000000E+00   0.0000000000E+00   0.0000000000E+00   0.0000000000E+00  -0.1135652777E+01  -0.4292443709E-10  -0.4292445549E-10   0.7323849642E-16   0.1265627796E-15   0.5311690036E-16
   0.0000000000E+00   0.1017715082E+01   0.1017715082E+01   0.0000000000E+00   0.4993879816E-02   0.4993879816E-02   0.0000000000E+00   0.1272120263E-01   0.1272120263E-01   0.0000000000E+00   0.0000000000E+00   0.0000000000E+00   0.0000000000E+00   0.0000000000E+00   0.0000000000E+00  -0.1135652777E+01  -0.4292928292E-10  -0.4292911433E-10   0.1208368650E-15  -0.9393963227E-16   0.1754876957E-16
   0.1928382568E+01   0.0000000000E+00  -0.4597300131E-17  -0.2000000000E-01   0.0000000000E+00  -0.9076630936E-17  -0.5161743164E-01   0.0000000000E+00   0.4479330805E-17   0.0000000000E+00   0.0000000000E+00   0.0000000000E+00   0.0000000000E+00   0.0000000000E+00   0.0000000000E+00  -0.1135652777E+01  -0.4293186130E-10  -0.4293185522E-10   0.5314036377E-16  -0.1414767264E-15  -0.2334108243E-16
   0.1928382568E+01   0.1017715082E+01  -0.5013869844E-17  -0.2000000000E-01   0.4993879816E-02  -0.7669469459E-17  -0.5161743164E-01   0.1272120263E-01   0.2655599615E-17   0.0000000000E+00   0.0000000000E+00   0.0000000000E+00   0.0000000000E+00   0.0000000000E+00   0.0000000000E+00  -0.1135652777E+01  -0.4291569056E-10  -0.4291572490E-10   0.1477178365E-15   0.6891846945E-16  -0.4965224927E-16
   0.1928382568E+01   0.0000000000E+00   0.1017715082E+01  -0.2000000000E-01   0.0000000000E+00   0.4993879816E-02  -0.5161743164E-01   0.0000000000E+00   0.1272120263E-01   0.0000000000E+00   0.0000000000E+00   0.0000000000E+00   0.0000000000E+00   0.0000000000E+00   0.0000000000E+00  -0.1135652777E+01  -0.4293813259E-10  -0.4293799588E-10   0.7547144597E-16  -0.1498832836E-15   0.2966571335E-16
   0.1928382568E+01   0.1017715082E+01   0.1017715082E+01  -0.2000000000E-01   0.4993879816E-02   0.4993879816E-02  -0.5161743164E-01   0.1272120263E-01   0.1272120263E-01   0.0000000000E+00   0.0000000000E+00   0.0000000000E+00   0.0000000000E+00   0.0000000000E+00   0.0000000000E+00  -0.1135652777E+01  -0.4292198206E-10  -0.4292188577E-10  -0.9315862854E-16   0.9230748676E-16  -0.1758493915E-15
     1     2     3     4     5     6     7     8
     2     9    10     3     6    11    12     7
 VARIABLES = X,Y,Z,DU1,DU2,DU3,U1,U2,U3,e11,e22,e33,e12,e13,e23,S11,S22,S33,S12,S13,S23
 ZONE, T="0.4229D+01" F=FEPOINT, I=   12 J=    2 ET=BRICK
   0.0000000000E+00   0.0000000000E+00   0.0000000000E+00   0.0000000000E+00   0.0000000000E+00   0.0000000000E+00   0.0000000000E+00   0.0000000000E+00   0.0000000000E+00   0.0000000000E+00   0.0000000000E+00   0.0000000000E+00   0.0000000000E+00   0.0000000000E+00   0.0000000000E+00  -0.1164051025E+01  -0.7158315455E-11  -0.7158338487E-11   0.1323285043E-16  -0.5370376244E-16   0.4941220541E-16
   0.9541912842E+00   0.0000000000E+00  -0.3333571706E-17  -0.1000000000E-01   0.0000000000E+00   0.2863835202E-18  -0.3580871582E-01   0.0000000000E+00  -0.3619955226E-17   0.0000000000E+00   0.0000000000E+00   0.0000000000E+00   0.0000000000E+00   0.0000000000E+00   0.0000000000E+00  -0.1164051025E+01  -0.7161128392E-11  -0.7161096001E-11  -0.2138616935E-16   0.1526547850E-15  -0.6035771884E-16
   0.9541912842E+00   0.1022710349E+01  -0.6478380240E-17  -0.1000000000E-01   0.4995266959E-02  -0.6517214205E-17  -0.3580871582E-01   0.1771508245E-01   0.3883396533E-19   0.0000000000E+00   0.0000000000E+00   0.0000000000E+00   0.0000000000E+00   0.0000000000E+00   0.0000000000E+00  -0.1164051025E+01  -0.7148532291E-11  -0.7148462604E-11  -0.5810982071E-16   0.4167010256E-16   0.4873440296E-16
   0.0000000000E+00   0.1022710349E+01   0.3904739519E-17   0.0000000000E+00   0.4995266959E-02   0.3265659810E-17   0.0000000000E+00   0.1771508245E-01   0.6390797090E-18   0.0000000000E+00   0.0000000000E+00   0.0000000000E+00   0.0000000000E+00   0.0000000000E+00   0.0000000000E+00  -0.1164051025E+01  -0.7158014877E-11  -0.7158056561E-11  -0.7747783408E-16  -0.8872159782E-16  -0.1592590733E-16
   0.0000000000E+00   0.0000000000E+00   0.1022710349E+01   0.0000000000E+00   0.0000000000E+00   0.4995266959E-02   0.0000000000E+00   0.0000000000E+00   0.1771508245E-01   0.0000000000E+00   0.0000000000E+00   0.0000000000E+00   0.0000000000E+00   0.0000000000E+00   0.0000000000E+00  -0.1164051025E+01  -0.7137829255E-11  -0.7137819908E-11  -0.7020271412E-17  -0.3903522953E-16  -0.8551415534E-16
   0.9541912842E+00   0.0000000000E+00   0.1022710349E+01  -0.1000000000E-01   0.0000000000E+00   0.4995266959E-02  -0.3580871582E-01   0.0000000000E+00   0.1771508245E-01   0.0000000000E+00   0.0000000000E+00   0.0000000000E+00   0.0000000000E+00   0.0000000000E+00   0.0000000000E+00  -0.1164051025E+01  -0.7156722411E-11  -0.7156690082E-11   0.1421976401E-17   0.4387569083E-16   0.3018064494E-16
   0.9541912842E+00   0.1022710349E+01   0.1022710349E+01  -0.1000000000E-01   0.4995266959E-02   0.4995266959E-02  -0.3580871582E-01   0.1771508245E-01   0.1771508245E-01   0.0000000000E+00   0.0000000000E+00   0.0000000000E+00   0.0000000000E+00   0.0000000000E+00   0.0000000000E+00  -0.1164051025E+01  -0.7164975483E-11  -0.7164905717E-11  -0.9272337557E-17   0.3966663775E-16   0.2435425876E-16
   0.0000000000E+00   0.1022710349E+01   0.1022710349E+01   0.0000000000E+00   0.4995266959E-02   0.4995266959E-02   0.0000000000E+00   0.1771508245E-01   0.1771508245E-01   0.0000000000E+00   0.0000000000E+00   0.0000000000E+00   0.0000000000E+00   0.0000000000E+00   0.0000000000E+00  -0.1164051025E+01  -0.7158329134E-11  -0.7158338485E-11   0.8024941864E-16  -0.4112556336E-16  -0.5035541778E-16
   0.1908382568E+01   0.0000000000E+00  -0.1283173678E-16  -0.2000000000E-01   0.0000000000E+00  -0.8234436651E-17  -0.7161743164E-01   0.0000000000E+00  -0.4597300131E-17   0.0000000000E+00   0.0000000000E+00   0.0000000000E+00   0.0000000000E+00   0.0000000000E+00   0.0000000000E+00  -0.1164051025E+01  -0.7153454504E-11  -0.7153394144E-11   0.2448109868E-16  -0.1450725893E-15   0.7271894252E-16
   0.1908382568E+01   0.1022710349E+01  -0.5949223841E-17  -0.2000000000E-01   0.4995266959E-02  -0.9353539969E-18  -0.7161743164E-01   0.1771508245E-01  -0.5013869844E-17   0.0000000000E+00   0.0000000000E+00   0.0000000000E+00   0.0000000000E+00   0.0000000000E+00   0.0000000000E+00  -0.1164051025E+01  -0.7149267686E-11  -0.7149467439E-11   0.4901697502E-16   0.1236336243E-15   0.3246635581E-16
   0.1908382568E+01   0.0000000000E+00   0.1022710349E+01  -0.2000000000E-01   0.0000000000E+00   0.4995266959E-02  -0.7161743164E-01   0.0000000000E+00   0.1771508245E-01   0.0000000000E+00   0.0000000000E+00   0.0000000000E+00   0.0000000000E+00   0.0000000000E+00   0.0000000000E+00  -0.1164051025E+01  -0.7165193648E-11  -0.7165165590E-11  -0.1289220175E-16  -0.7083709866E-16  -0.1100354378E-15
   0.1908382568E+01   0.1022710349E+01   0.1022710349E+01  -0.2000000000E-01   0.4995266959E-02   0.4995266959E-02  -0.7161743164E-01   0.1771508245E-01   0.1771508245E-01   0.0000000000E+00   0.0000000000E+00   0.0000000000E+00   0.0000000000E+00   0.0000000000E+00   0.0000000000E+00  -0.1164051025E+01  -0.7181597964E-11  -0.7181830256E-11  -0.6044172911E-16  -0.1467101049E-15  -0.1404065834E-16
     1     2     3     4     5     6     7     8
     2     9    10     3     6    11    12     7
 VARIABLES = X,Y,Z,DU1,DU2,DU3,U1,U2,U3,e11,e22,e33,e12,e13,e23,S11,S22,S33,S12,S13,S23
 ZONE, T="0.4279D+01" F=FEPOINT, I=   12 J=    2 ET=BRICK
   0.0000000000E+00   0.0000000000E+00   0.0000000000E+00   0.0000000000E+00   0.0000000000E+00   0.0000000000E+00   0.0000000000E+00   0.0000000000E+00   0.0000000000E+00   0.0000000000E+00   0.0000000000E+00   0.0000000000E+00   0.0000000000E+00   0.0000000000E+00   0.0000000000E+00  -0.1187319008E+01  -0.1853856427E-11  -0.1854049561E-11   0.4397162493E-17  -0.4040721365E-16   0.2399956515E-16
   0.9441912842E+00   0.0000000000E+00  -0.1007468173E-17  -0.1000000000E-01   0.0000000000E+00   0.2326103532E-17  -0.4580871582E-01   0.0000000000E+00  -0.3333571706E-17   0.0000000000E+00   0.0000000000E+00   0.0000000000E+00   0.0000000000E+00   0.0000000000E+00   0.0000000000E+00  -0.1187319008E+01  -0.1862929711E-11  -0.1862905046E-11   0.9347312390E-17   0.5591414820E-16  -0.6763722791E-17
   0.9441912842E+00   0.1027706471E+01  -0.1278263601E-17  -0.1000000000E-01   0.4996122003E-02   0.5200116639E-17  -0.4580871582E-01   0.2271034941E-01  -0.6478380240E-17   0.0000000000E+00   0.0000000000E+00   0.0000000000E+00   0.0000000000E+00   0.0000000000E+00   0.0000000000E+00  -0.1187319008E+01  -0.1873248416E-11  -0.1873255025E-11  -0.1988399317E-16  -0.6705688179E-16   0.2394283207E-16
   0.0000000000E+00   0.1027706471E+01   0.2421607379E-17   0.0000000000E+00   0.4996122003E-02  -0.1483132141E-17   0.0000000000E+00   0.2271034941E-01   0.3904739519E-17   0.0000000000E+00   0.0000000000E+00   0.0000000000E+00   0.0000000000E+00   0.0000000000E+00   0.0000000000E+00  -0.1187319008E+01  -0.1870861293E-11  -0.1870910624E-11  -0.4435095652E-16   0.3646088213E-17  -0.2943120513E-16
   0.0000000000E+00   0.0000000000E+00   0.1027706471E+01   0.0000000000E+00   0.0000000000E+00   0.4996122003E-02   0.0000000000E+00   0.0000000000E+00   0.2271034941E-01   0.0000000000E+00   0.0000000000E+00   0.0000000000E+00   0.0000000000E+00   0.0000000000E+00   0.0000000000E+00  -0.1187319008E+01  -0.1889572750E-11  -0.1889643442E-11   0.4097549700E-17   0.1145394710E-15   0.2495257335E-16
   0.9441912842E+00   0.0000000000E+00   0.1027706471E+01  -0.1000000000E-01   0.0000000000E+00   0.4996122003E-02  -0.4580871582E-01   0.0000000000E+00   0.2271034941E-01   0.0000000000E+00   0.0000000000E+00   0.0000000000E+00   0.0000000000E+00   0.0000000000E+00   0.0000000000E+00  -0.1187319008E+01  -0.1868017162E-11  -0.1868035218E-11  -0.7582533660E-17  -0.4004134078E-16  -0.1260257811E-16
   0.9441912842E+00   0.1027706471E+01   0.1027706471E+01  -0.1000000000E-01   0.4996122003E-02   0.4996122003E-02  -0.4580871582E-01   0.2271034941E-01   0.2271034941E-01   0.0000000000E+00   0.0000000000E+00   0.0000000000E+00   0.0000000000E+00   0.0000000000E+00   0.0000000000E+00  -0.1187319008E+01  -0.1868001524E-11  -0.1868050855E-11   0.1810460146E-16   0.6547966088E-16   0.6903110474E-16
   0.0000000000E+00   0.1027706471E+01   0.1027706471E+01   0.0000000000E+00   0.4996122003E-02   0.4996122003E-02   0.0000000000E+00   0.2271034941E-01   0.2271034941E-01   0.0000000000E+00   0.0000000000E+00   0.0000000000E+00   0.0000000000E+00   0.0000000000E+00   0.0000000000E+00  -0.1187319008E+01  -0.1849516743E-11  -0.1849443631E-11   0.7547099225E-16  -0.5509365899E-16  -0.8939442547E-16
   0.1888382568E+01   0.0000000000E+00   0.5125693503E-17  -0.2000000000E-01   0.0000000000E+00   0.1795743029E-16  -0.9161743164E-01   0.0000000000E+00  -0.1283173678E-16   0.0000000000E+00   0.0000000000E+00   0.0000000000E+00   0.0000000000E+00   0.0000000000E+00   0.0000000000E+00  -0.1187319008E+01  -0.1882146623E-11  -0.1882052150E-11  -0.4600837745E-16  -0.8949936515E-16  -0.1085872340E-15
   0.1888382568E+01   0.1027706471E+01  -0.7557410675E-17  -0.2000000000E-01   0.4996122003E-02  -0.1608186833E-17  -0.9161743164E-01   0.2271034941E-01  -0.5949223841E-17   0.0000000000E+00   0.0000000000E+00   0.0000000000E+00   0.0000000000E+00   0.0000000000E+00   0.0000000000E+00  -0.1187319008E+01  -0.1865258475E-11  -0.1865074368E-11  -0.5357678780E-16  -0.1748528877E-16   0.1851768405E-16
   0.1888382568E+01   0.0000000000E+00   0.1027706471E+01  -0.2000000000E-01   0.0000000000E+00   0.4996122003E-02  -0.9161743164E-01   0.0000000000E+00   0.2271034941E-01   0.0000000000E+00   0.0000000000E+00   0.0000000000E+00   0.0000000000E+00   0.0000000000E+00   0.0000000000E+00  -0.1187319008E+01  -0.1856753194E-11  -0.1856866608E-11   0.3355761110E-16   0.8056197437E-16  -0.1957114079E-16
   0.1888382568E+01   0.1027706471E+01   0.1027706471E+01  -0.2000000000E-01   0.4996122003E-02   0.4996122003E-02  -0.9161743164E-01   0.2271034941E-01   0.2271034941E-01   0.0000000000E+00   0.0000000000E+00   0.0000000000E+00   0.0000000000E+00   0.0000000000E+00   0.0000000000E+00  -0.1187319008E+01  -0.1876257235E-11  -0.1876281015E-11  -0.1633263949E-16  -0.2273471106E-16   0.2902440032E-16
     1     2     3     4     5     6     7     8
     2     9    10     3     6    11    12     7
 VARIABLES = X,Y,Z,DU1,DU2,DU3,U1,U2,U3,e11,e22,e33,e12,e13,e23,S11,S22,S33,S12,S13,S23
 ZONE, T="0.4329D+01" F=FEPOINT, I=   12 J=    2 ET=BRICK
   0.0000000000E+00   0.0000000000E+00   0.0000000000E+00   0.0000000000E+00   0.0000000000E+00   0.0000000000E+00   0.0000000000E+00   0.0000000000E+00   0.0000000000E+00   0.0000000000E+00   0.0000000000E+00   0.0000000000E+00   0.0000000000E+00   0.0000000000E+00   0.0000000000E+00  -0.1207090247E+01  -0.6314498117E-12  -0.6314526516E-12  -0.2222138134E-16   0.5455362886E-16  -0.1326315240E-15
   0.9341912842E+00   0.0000000000E+00   0.8254858232E-17  -0.1000000000E-01   0.0000000000E+00   0.9262326405E-17  -0.5580871582E-01   0.0000000000E+00  -0.1007468173E-17   0.0000000000E+00   0.0000000000E+00   0.0000000000E+00   0.0000000000E+00   0.0000000000E+00   0.0000000000E+00  -0.1207090247E+01  -0.6382267861E-12  -0.6382947111E-12  -0.1031614626E-15  -0.1102079313E-15  -0.1264648777E-15
   0.9341912842E+00   0.1032703176E+01  -0.1136760853E-16  -0.1000000000E-01   0.4996704794E-02  -0.1008934493E-16  -0.5580871582E-01   0.2770647141E-01  -0.1278263601E-17   0.0000000000E+00   0.0000000000E+00   0.0000000000E+00   0.0000000000E+00   0.0000000000E+00   0.0000000000E+00  -0.1207090246E+01  -0.6179357118E-12  -0.6178096909E-12  -0.5827001954E-16   0.8684591947E-17  -0.1874118169E-16
   0.0000000000E+00   0.1032703176E+01  -0.1949785621E-16   0.0000000000E+00   0.4996704794E-02  -0.2191946359E-16   0.0000000000E+00   0.2770647141E-01   0.2421607379E-17   0.0000000000E+00   0.0000000000E+00   0.0000000000E+00   0.0000000000E+00   0.0000000000E+00   0.0000000000E+00  -0.1207090246E+01  -0.6095874402E-12  -0.6092921916E-12  -0.9300553981E-17   0.1047919900E-15  -0.3216905665E-16
   0.0000000000E+00   0.0000000000E+00   0.1032703176E+01   0.0000000000E+00   0.0000000000E+00   0.4996704794E-02   0.0000000000E+00   0.0000000000E+00   0.2770647141E-01   0.0000000000E+00   0.0000000000E+00   0.0000000000E+00   0.0000000000E+00   0.0000000000E+00   0.0000000000E+00  -0.1207090246E+01  -0.6487546556E-12  -0.6489416096E-12   0.1925119942E-16  -0.3177365876E-16   0.3608336670E-16
   0.9341912842E+00   0.0000000000E+00   0.1032703176E+01  -0.1000000000E-01   0.0000000000E+00   0.4996704794E-02  -0.5580871582E-01   0.0000000000E+00   0.2770647141E-01   0.0000000000E+00   0.0000000000E+00   0.0000000000E+00   0.0000000000E+00   0.0000000000E+00   0.0000000000E+00  -0.1207090246E+01  -0.6398001473E-12  -0.6399417061E-12  -0.6421299045E-17  -0.6318123862E-16   0.4898388241E-16
   0.9341912842E+00   0.1032703176E+01   0.1032703176E+01  -0.1000000000E-01   0.4996704794E-02   0.4996704794E-02  -0.5580871582E-01   0.2770647141E-01   0.2770647141E-01   0.0000000000E+00   0.0000000000E+00   0.0000000000E+00   0.0000000000E+00   0.0000000000E+00   0.0000000000E+00  -0.1207090246E+01  -0.6404999635E-12  -0.6404475912E-12  -0.1616038846E-16   0.9258869069E-16   0.7152972557E-16
   0.0000000000E+00   0.1032703176E+01   0.1032703176E+01   0.0000000000E+00   0.4996704794E-02   0.4996704794E-02   0.0000000000E+00   0.2770647141E-01   0.2770647141E-01   0.0000000000E+00   0.0000000000E+00   0.0000000000E+00   0.0000000000E+00   0.0000000000E+00   0.0000000000E+00  -0.1207090246E+01  -0.6160951661E-12  -0.6159839279E-12  -0.3691458680E-16  -0.3051513429E-16   0.1699754559E-15
   0.1868382568E+01   0.0000000000E+00   0.9077493604E-17  -0.2000000000E-01   0.0000000000E+00   0.3951800100E-17  -0.1116174316E+00   0.0000000000E+00   0.5125693503E-17   0.0000000000E+00   0.0000000000E+00   0.0000000000E+00   0.0000000000E+00   0.0000000000E+00   0.0000000000E+00  -0.1207090247E+01  -0.6493292285E-12  -0.6495161211E-12  -0.2805314239E-16   0.1184003843E-15  -0.6456305158E-16
   0.1868382568E+01   0.1032703176E+01  -0.2430070714E-17  -0.2000000000E-01   0.4996704794E-02   0.5127339961E-17  -0.1116174316E+00   0.2770647141E-01  -0.7557410675E-17   0.0000000000E+00   0.0000000000E+00   0.0000000000E+00   0.0000000000E+00   0.0000000000E+00   0.0000000000E+00  -0.1207090246E+01  -0.6101411151E-12  -0.6099832298E-12   0.4794345918E-16  -0.3067738351E-16  -0.9103897555E-16
   0.1868382568E+01   0.0000000000E+00   0.1032703176E+01  -0.2000000000E-01   0.0000000000E+00   0.4996704794E-02  -0.1116174316E+00   0.0000000000E+00   0.2770647141E-01   0.0000000000E+00   0.0000000000E+00   0.0000000000E+00   0.0000000000E+00   0.0000000000E+00   0.0000000000E+00  -0.1207090246E+01  -0.6352644450E-12  -0.6354145208E-12   0.1348796494E-16  -0.2190140585E-16   0.8277176101E-16
   0.1868382568E+01   0.1032703176E+01   0.1032703176E+01  -0.2000000000E-01   0.4996704794E-02   0.4996704794E-02  -0.1116174316E+00   0.2770647141E-01   0.2770647141E-01   0.0000000000E+00   0.0000000000E+00   0.0000000000E+00   0.0000000000E+00   0.0000000000E+00   0.0000000000E+00  -0.1207090246E+01  -0.6484135503E-12  -0.6482188407E-12  -0.4560728542E-16  -0.9138879789E-16   0.9756998030E-16
     1     2     3     4     5     6     7     8
     2     9    10     3     6    11    12     7
 VARIABLES = X,Y,Z,DU1,DU2,DU3,U1,U2,U3,e11,e22,e33,e12,e13,e23,S11,S22,S33,S12,S13,S23
 ZONE, T="0.4379D+01" F=FEPOINT, I=   12 J=    2 ET=BRICK
   0.0000000000E+00   0.0000000000E+00   0.0000000000E+00   0.0000000000E+00   0.0000000000E+00   0.0000000000E+00   0.0000000000E+00   0.0000000000E+00   0.0000000000E+00   0.0000000000E+00   0.0000000000E+00   0.0000000000E+00   0.0000000000E+00   0.0000000000E+00   0.0000000000E+00  -0.1224317092E+01  -0.2315455861E-12  -0.2313803856E-12  -0.1370235433E-17   0.5804992227E-16  -0.2630487944E-16
   0.9241912842E+00   0.0000000000E+00   0.1199296960E-16  -0.1000000000E-01   0.0000000000E+00   0.3738111365E-17  -0.6580871582E-01   0.0000000000E+00   0.8254858232E-17   0.0000000000E+00   0.0000000000E+00   0.0000000000E+00   0.0000000000E+00   0.0000000000E+00   0.0000000000E+00  -0.1224317092E+01  -0.2488902401E-12  -0.2489139618E-12  -0.3231356848E-15  -0.2935106862E-15  -0.6060373092E-16
   0.9241912842E+00   0.1037700305E+01   0.3666543540E-17  -0.1000000000E-01   0.4997128859E-02   0.1503415207E-16  -0.6580871582E-01   0.3270317620E-01  -0.1136760853E-16   0.0000000000E+00   0.0000000000E+00   0.0000000000E+00   0.0000000000E+00   0.0000000000E+00   0.0000000000E+00  -0.1224317092E+01  -0.2570990269E-12  -0.2570341952E-12  -0.2825046745E-15   0.2938393745E-15   0.1797732919E-17
   0.0000000000E+00   0.1037700305E+01  -0.4858255725E-17   0.0000000000E+00   0.4997128859E-02   0.1463960049E-16   0.0000000000E+00   0.3270317620E-01  -0.1949785621E-16   0.0000000000E+00   0.0000000000E+00   0.0000000000E+00   0.0000000000E+00   0.0000000000E+00   0.0000000000E+00  -0.1224317092E+01  -0.2869339552E-12  -0.2869252518E-12   0.1185101183E-15  -0.2004887553E-17   0.1290530963E-15
   0.0000000000E+00   0.0000000000E+00   0.1037700305E+01   0.0000000000E+00   0.0000000000E+00   0.4997128859E-02   0.0000000000E+00   0.0000000000E+00   0.3270317620E-01   0.0000000000E+00   0.0000000000E+00   0.0000000000E+00   0.0000000000E+00   0.0000000000E+00   0.0000000000E+00  -0.1224317092E+01  -0.2562896151E-12  -0.2562982840E-12   0.8814872882E-17   0.8675161040E-16  -0.5655019555E-17
   0.9241912842E+00   0.0000000000E+00   0.1037700305E+01  -0.1000000000E-01   0.0000000000E+00   0.4997128859E-02  -0.6580871582E-01   0.0000000000E+00   0.3270317620E-01   0.0000000000E+00   0.0000000000E+00   0.0000000000E+00   0.0000000000E+00   0.0000000000E+00   0.0000000000E+00  -0.1224317092E+01  -0.2614332740E-12  -0.2614981108E-12   0.1734498995E-15  -0.3585987040E-15   0.3692502159E-16
   0.9241912842E+00   0.1037700305E+01   0.1037700305E+01  -0.1000000000E-01   0.4997128859E-02   0.4997128859E-02  -0.6580871582E-01   0.3270317620E-01   0.3270317620E-01   0.0000000000E+00   0.0000000000E+00   0.0000000000E+00   0.0000000000E+00   0.0000000000E+00   0.0000000000E+00  -0.1224317092E+01  -0.2489376934E-12  -0.2489139617E-12   0.1721126345E-15   0.1925155236E-15   0.5047697697E-16
   0.0000000000E+00   0.1037700305E+01   0.1037700305E+01   0.0000000000E+00   0.4997128859E-02   0.4997128859E-02   0.0000000000E+00   0.3270317620E-01   0.3270317620E-01   0.0000000000E+00   0.0000000000E+00   0.0000000000E+00   0.0000000000E+00   0.0000000000E+00   0.0000000000E+00  -0.1224317092E+01  -0.2596512293E-12  -0.2598164989E-12  -0.2893585424E-16   0.7685073149E-16   0.1142948465E-15
   0.1848382568E+01   0.0000000000E+00   0.3292779307E-16  -0.2000000000E-01   0.0000000000E+00   0.2385029947E-16  -0.1316174316E+00   0.0000000000E+00   0.9077493604E-17   0.0000000000E+00   0.0000000000E+00   0.0000000000E+00   0.0000000000E+00   0.0000000000E+00   0.0000000000E+00  -0.1224317092E+01  -0.2784779148E-12  -0.2784660539E-12  -0.5616486320E-16  -0.1062052823E-15  -0.1641085136E-15
   0.1848382568E+01   0.1037700305E+01   0.7784213919E-17  -0.2000000000E-01   0.4997128859E-02   0.1021428463E-16  -0.1316174316E+00   0.3270317620E-01  -0.2430070714E-17   0.0000000000E+00   0.0000000000E+00   0.0000000000E+00   0.0000000000E+00   0.0000000000E+00   0.0000000000E+00  -0.1224317092E+01  -0.2600993167E-12  -0.2599783331E-12  -0.1018950486E-15   0.1304579044E-15   0.1548952312E-16
   0.1848382568E+01   0.0000000000E+00   0.1037700305E+01  -0.2000000000E-01   0.0000000000E+00   0.4997128859E-02  -0.1316174316E+00   0.0000000000E+00   0.3270317620E-01   0.0000000000E+00   0.0000000000E+00   0.0000000000E+00   0.0000000000E+00   0.0000000000E+00   0.0000000000E+00  -0.1224317092E+01  -0.2577787937E-12  -0.2578997749E-12   0.7421240432E-16   0.2629296854E-15  -0.1327159608E-15
   0.1848382568E+01   0.1037700305E+01   0.1037700305E+01  -0.2000000000E-01   0.4997128859E-02   0.4997128859E-02  -0.1316174316E+00   0.3270317620E-01   0.3270317620E-01   0.0000000000E+00   0.0000000000E+00   0.0000000000E+00   0.0000000000E+00   0.0000000000E+00   0.0000000000E+00  -0.1224317092E+01  -0.2500180747E-12  -0.2500299405E-12   0.2001607834E-15  -0.2124560619E-15   0.2820756566E-17
     1     2     3     4     5     6     7     8
     2     9    10     3     6    11    12     7
 VARIABLES = X,Y,Z,DU1,DU2,DU3,U1,U2,U3,e11,e22,e33,e12,e13,e23,S11,S22,S33,S12,S13,S23
 ZONE, T="0.4429D+01" F=FEPOINT, I=   12 J=    2 ET=BRICK
   0.0000000000E+00   0.0000000000E+00   0.0000000000E+00   0.0000000000E+00   0.0000000000E+00   0.0000000000E+00   0.0000000000E+00   0.0000000000E+00   0.0000000000E+00   0.0000000000E+00   0.0000000000E+00   0.0000000000E+00   0.0000000000E+00   0.0000000000E+00   0.0000000000E+00  -0.1239605159E+01  -0.1197216917E-12  -0.1197812865E-12  -0.8846455413E-17  -0.7792321485E-16  -0.5021399855E-16
   0.9141912842E+00   0.0000000000E+00  -0.6322524881E-17  -0.1000000000E-01   0.0000000000E+00  -0.1831549448E-16  -0.7580871582E-01   0.0000000000E+00   0.1199296960E-16   0.0000000000E+00   0.0000000000E+00   0.0000000000E+00   0.0000000000E+00   0.0000000000E+00   0.0000000000E+00  -0.1239605159E+01  -0.1216634611E-12  -0.1216176949E-12   0.1330681469E-15   0.2108698981E-15  -0.1930484317E-16
   0.9141912842E+00   0.1042697757E+01  -0.1232279316E-16  -0.1000000000E-01   0.4997451989E-02  -0.1598933670E-16  -0.7580871582E-01   0.3770030506E-01   0.3666543540E-17   0.0000000000E+00   0.0000000000E+00   0.0000000000E+00   0.0000000000E+00   0.0000000000E+00   0.0000000000E+00  -0.1239605159E+01  -0.1173519188E-12  -0.1173062489E-12   0.1520808834E-15  -0.1542470291E-15   0.1129308469E-15
   0.0000000000E+00   0.1042697757E+01  -0.1905972556E-16   0.0000000000E+00   0.4997451989E-02  -0.1420146983E-16   0.0000000000E+00   0.3770030506E-01  -0.4858255725E-17   0.0000000000E+00   0.0000000000E+00   0.0000000000E+00   0.0000000000E+00   0.0000000000E+00   0.0000000000E+00  -0.1239605159E+01  -0.9089661233E-13  -0.9078243736E-13  -0.6368654765E-16   0.7260666772E-16  -0.2310895217E-15
   0.0000000000E+00   0.0000000000E+00   0.1042697757E+01   0.0000000000E+00   0.0000000000E+00   0.4997451989E-02   0.0000000000E+00   0.0000000000E+00   0.3770030506E-01   0.0000000000E+00   0.0000000000E+00   0.0000000000E+00   0.0000000000E+00   0.0000000000E+00   0.0000000000E+00  -0.1239605159E+01  -0.1118162590E-12  -0.1118469166E-12   0.9184526831E-17   0.1991222643E-16   0.5231781393E-16
   0.9141912842E+00   0.0000000000E+00   0.1042697757E+01  -0.1000000000E-01   0.0000000000E+00   0.4997451989E-02  -0.7580871582E-01   0.0000000000E+00   0.3770030506E-01   0.0000000000E+00   0.0000000000E+00   0.0000000000E+00   0.0000000000E+00   0.0000000000E+00   0.0000000000E+00  -0.1239605159E+01  -0.1112205744E-12  -0.1112328374E-12  -0.2510282880E-15   0.2983109760E-15  -0.1008853268E-15
   0.9141912842E+00   0.1042697757E+01   0.1042697757E+01  -0.1000000000E-01   0.4997451989E-02   0.4997451989E-02  -0.7580871582E-01   0.3770030506E-01   0.3770030506E-01   0.0000000000E+00   0.0000000000E+00   0.0000000000E+00   0.0000000000E+00   0.0000000000E+00   0.0000000000E+00  -0.1239605159E+01  -0.1276147156E-12  -0.1276269528E-12  -0.2052981189E-15  -0.2928607947E-15   0.3718135863E-16
   0.0000000000E+00   0.1042697757E+01   0.1042697757E+01   0.0000000000E+00   0.4997451989E-02   0.4997451989E-02   0.0000000000E+00   0.3770030506E-01   0.3770030506E-01   0.0000000000E+00   0.0000000000E+00   0.0000000000E+00   0.0000000000E+00   0.0000000000E+00   0.0000000000E+00  -0.1239605159E+01  -0.1347553878E-12  -0.1346119707E-12   0.8592039607E-16  -0.5221523454E-16   0.2576122301E-16
   0.1828382568E+01   0.0000000000E+00  -0.9926392166E-17  -0.2000000000E-01   0.0000000000E+00  -0.4285418524E-16  -0.1516174316E+00   0.0000000000E+00   0.3292779307E-16   0.0000000000E+00   0.0000000000E+00   0.0000000000E+00   0.0000000000E+00   0.0000000000E+00   0.0000000000E+00  -0.1239605159E+01  -0.1236052305E-12  -0.1234541033E-12   0.4386004101E-16  -0.8753642899E-16   0.2938760694E-16
   0.1828382568E+01   0.1042697757E+01  -0.1976034733E-17  -0.2000000000E-01   0.4997451989E-02  -0.9760248652E-17  -0.1516174316E+00   0.3770030506E-01   0.7784213919E-17   0.0000000000E+00   0.0000000000E+00   0.0000000000E+00   0.0000000000E+00   0.0000000000E+00   0.0000000000E+00  -0.1239605159E+01  -0.1438072254E-12  -0.1438300604E-12   0.7653805872E-16  -0.5270893160E-16   0.5459199871E-16
   0.1828382568E+01   0.0000000000E+00   0.1042697757E+01  -0.2000000000E-01   0.0000000000E+00   0.4997451989E-02  -0.1516174316E+00   0.0000000000E+00   0.3770030506E-01   0.0000000000E+00   0.0000000000E+00   0.0000000000E+00   0.0000000000E+00   0.0000000000E+00   0.0000000000E+00  -0.1239605159E+01  -0.1106248897E-12  -0.1106187582E-12  -0.6052218671E-16  -0.2204275218E-16   0.1472994398E-16
   0.1828382568E+01   0.1042697757E+01   0.1042697757E+01  -0.2000000000E-01   0.4997451989E-02   0.4997451989E-02  -0.1516174316E+00   0.3770030506E-01   0.3770030506E-01   0.0000000000E+00   0.0000000000E+00   0.0000000000E+00   0.0000000000E+00   0.0000000000E+00   0.0000000000E+00  -0.1239605159E+01  -0.1204740433E-12  -0.1206419350E-12  -0.1032680727E-15   0.1460776224E-15   0.7593281204E-16
     1     2     3     4     5     6     7     8
     2     9    10     3     6    11    12     7
 VARIABLES = X,Y,Z,DU1,DU2,DU3,U1,U2,U3,e11,e22,e33,e12,e13,e23,S11,S22,S33,S12,S13,S23
 ZONE, T="0.4479D+01" F=FEPOINT, I=   12 J=    2 ET=BRICK
   0.0000000000E+00   0.0000000000E+00   0.0000000000E+00   0.0000000000E+00   0.0000000000E+00   0.0000000000E+00   0.0000000000E+00   0.0000000000E+00   0.0000000000E+00   0.0000000000E+00   0.0000000000E+00   0.0000000000E+00   0.0000000000E+00   0.0000000000E+00   0.0000000000E+00  -0.1253364327E+01  -0.3903253247E-13  -0.3909868866E-13  -0.1954217598E-16   0.9581583302E-16  -0.5145041341E-16
   0.9041912842E+00   0.0000000000E+00   0.9511445108E-17  -0.1000000000E-01   0.0000000000E+00   0.1583396999E-16  -0.8580871582E-01   0.0000000000E+00  -0.6322524881E-17   0.0000000000E+00   0.0000000000E+00   0.0000000000E+00   0.0000000000E+00   0.0000000000E+00   0.0000000000E+00  -0.1253364327E+01  -0.5132192932E-13  -0.5118964899E-13  -0.8102659742E-16  -0.1374270435E-15  -0.5502898448E-16
   0.9041912842E+00   0.1047695464E+01   0.5742655945E-18  -0.1000000000E-01   0.4997706805E-02   0.1289705876E-16  -0.8580871582E-01   0.4269775705E-01  -0.1232279316E-16   0.0000000000E+00   0.0000000000E+00   0.0000000000E+00   0.0000000000E+00   0.0000000000E+00   0.0000000000E+00  -0.1253364327E+01  -0.7430852801E-13  -0.7423388251E-13  -0.1264998772E-15   0.5812961943E-16   0.1276664126E-16
   0.0000000000E+00   0.1047695464E+01  -0.1083105583E-16   0.0000000000E+00   0.4997706805E-02   0.8228669727E-17   0.0000000000E+00   0.4269775705E-01  -0.1905972556E-16   0.0000000000E+00   0.0000000000E+00   0.0000000000E+00   0.0000000000E+00   0.0000000000E+00   0.0000000000E+00  -0.1253364327E+01  -0.9752578877E-13  -0.9731473554E-13   0.1418284591E-16   0.6740084443E-17  -0.1030937968E-15
   0.0000000000E+00   0.0000000000E+00   0.1047695464E+01   0.0000000000E+00   0.0000000000E+00   0.4997706805E-02   0.0000000000E+00   0.0000000000E+00   0.4269775705E-01   0.0000000000E+00   0.0000000000E+00   0.0000000000E+00   0.0000000000E+00   0.0000000000E+00   0.0000000000E+00  -0.1253364327E+01  -0.8217255536E-13  -0.8233407568E-13   0.9319445465E-17   0.7128338553E-16   0.1260693745E-15
   0.9041912842E+00   0.0000000000E+00   0.1047695464E+01  -0.1000000000E-01   0.0000000000E+00   0.4997706805E-02  -0.8580871582E-01   0.0000000000E+00   0.4269775705E-01   0.0000000000E+00   0.0000000000E+00   0.0000000000E+00   0.0000000000E+00   0.0000000000E+00   0.0000000000E+00  -0.1253364327E+01  -0.5354192414E-13  -0.5353379758E-13  -0.5158075942E-16  -0.8851451773E-16   0.3843784219E-16
   0.9041912842E+00   0.1047695464E+01   0.1047695464E+01  -0.1000000000E-01   0.4997706805E-02   0.4997706805E-02  -0.8580871582E-01   0.4269775705E-01   0.4269775705E-01   0.0000000000E+00   0.0000000000E+00   0.0000000000E+00   0.0000000000E+00   0.0000000000E+00   0.0000000000E+00  -0.1253364327E+01  -0.5570607554E-13  -0.5575558382E-13   0.5077518755E-16  -0.8646607704E-16   0.3545133927E-16
   0.0000000000E+00   0.1047695464E+01   0.1047695464E+01   0.0000000000E+00   0.4997706805E-02   0.4997706805E-02   0.0000000000E+00   0.4269775705E-01   0.4269775705E-01   0.0000000000E+00   0.0000000000E+00   0.0000000000E+00   0.0000000000E+00   0.0000000000E+00   0.0000000000E+00  -0.1253364327E+01  -0.2640469815E-13  -0.2628903481E-13   0.5195905516E-16   0.4813059137E-16   0.3515595985E-16
   0.1808382568E+01   0.0000000000E+00   0.1431512256E-16  -0.2000000000E-01   0.0000000000E+00   0.2424151473E-16  -0.1716174316E+00   0.0000000000E+00  -0.9926392166E-17   0.0000000000E+00   0.0000000000E+00   0.0000000000E+00   0.0000000000E+00   0.0000000000E+00   0.0000000000E+00  -0.1253364327E+01  -0.8433395754E-13  -0.8447179214E-13  -0.6020741668E-16   0.6181926961E-16  -0.2282984742E-16
   0.1808382568E+01   0.1047695464E+01   0.4877993640E-18  -0.2000000000E-01   0.4997706805E-02   0.2463834097E-17  -0.1716174316E+00   0.4269775705E-01  -0.1976034733E-17   0.0000000000E+00   0.0000000000E+00   0.0000000000E+00   0.0000000000E+00   0.0000000000E+00   0.0000000000E+00  -0.1253364327E+01  -0.9493976416E-14  -0.9478828082E-14  -0.1004303226E-15   0.1938754969E-15   0.2248542726E-16
   0.1808382568E+01   0.0000000000E+00   0.1047695464E+01  -0.2000000000E-01   0.0000000000E+00   0.4997706805E-02  -0.1716174316E+00   0.0000000000E+00   0.4269775705E-01   0.0000000000E+00   0.0000000000E+00   0.0000000000E+00   0.0000000000E+00   0.0000000000E+00   0.0000000000E+00  -0.1253364327E+01  -0.6621699391E-13  -0.6632603257E-13   0.8818138438E-17   0.5194650269E-16  -0.1025389230E-15
   0.1808382568E+01   0.1047695464E+01   0.1047695464E+01  -0.2000000000E-01   0.4997706805E-02   0.4997706805E-02  -0.1716174316E+00   0.4269775705E-01   0.4269775705E-01   0.0000000000E+00   0.0000000000E+00   0.0000000000E+00   0.0000000000E+00   0.0000000000E+00   0.0000000000E+00  -0.1253364327E+01  -0.6423829674E-13  -0.6419432669E-13   0.4560491023E-16   0.1398921527E-16   0.9622599809E-17
     1     2     3     4     5     6     7     8
     2     9    10     3     6    11    12     7
 VARIABLES = X,Y,Z,DU1,DU2,DU3,U1,U2,U3,e11,e22,e33,e12,e13,e23,S11,S22,S33,S12,S13,S23
 ZONE, T="0.4529D+01" F=FEPOINT, I=   12 J=    2 ET=BRICK
   0.0000000000E+00   0.0000000000E+00   0.0000000000E+00   0.0000000000E+00   0.0000000000E+00   0.0000000000E+00   0.0000000000E+00   0.0000000000E+00   0.0000000000E+00   0.0000000000E+00   0.0000000000E+00   0.0000000000E+00   0.0000000000E+00   0.0000000000E+00   0.0000000000E+00  -0.1251229352E+01  -0.7547827311E-14  -0.7494525733E-14   0.3459649572E-16  -0.7443194814E-17   0.2441647641E-16
   0.9058087158E+00   0.0000000000E+00  -0.4297419880E-17   0.1617431641E-02   0.0000000000E+00  -0.1380886499E-16  -0.9580871582E-01   0.0000000000E+00   0.9511445108E-17   0.0000000000E+00   0.0000000000E+00   0.0000000000E+00   0.0000000000E+00   0.0000000000E+00   0.0000000000E+00  -0.1251229352E+01  -0.1444340822E-13  -0.1449669410E-13  -0.5541516067E-16   0.3369345375E-16   0.2092283544E-16
   0.9058087158E+00   0.1046887104E+01   0.5386650571E-17   0.1617431641E-02  -0.8083599911E-03   0.4812384977E-17  -0.9580871582E-01   0.4769546386E-01   0.5742655945E-18   0.0000000000E+00   0.0000000000E+00   0.0000000000E+00   0.0000000000E+00   0.0000000000E+00   0.0000000000E+00  -0.1251229352E+01  -0.9785039663E-14  -0.9944884242E-14   0.1144493752E-15  -0.1573990605E-17  -0.3235661823E-16
   0.0000000000E+00   0.1046887104E+01   0.5022053299E-17   0.0000000000E+00  -0.8083599911E-03   0.1585310913E-16   0.0000000000E+00   0.4769546386E-01  -0.1083105583E-16   0.0000000000E+00   0.0000000000E+00   0.0000000000E+00   0.0000000000E+00   0.0000000000E+00   0.0000000000E+00  -0.1251229352E+01  -0.4200913247E-13  -0.4218855723E-13   0.1205957884E-15  -0.5618378479E-16   0.7346501877E-16
   0.0000000000E+00   0.0000000000E+00   0.1046887104E+01   0.0000000000E+00   0.0000000000E+00  -0.8083599911E-03   0.0000000000E+00   0.0000000000E+00   0.4769546386E-01   0.0000000000E+00   0.0000000000E+00   0.0000000000E+00   0.0000000000E+00   0.0000000000E+00   0.0000000000E+00  -0.1251229352E+01  -0.3099909793E-13  -0.3086588613E-13  -0.2263374227E-16  -0.4822014944E-16  -0.3637753346E-16
   0.9058087158E+00   0.0000000000E+00   0.1046887104E+01   0.1617431641E-02   0.0000000000E+00  -0.8083599911E-03  -0.9580871582E-01   0.0000000000E+00   0.4769546386E-01   0.0000000000E+00   0.0000000000E+00   0.0000000000E+00   0.0000000000E+00   0.0000000000E+00   0.0000000000E+00  -0.1251229352E+01  -0.4008417725E-14  -0.3901853403E-14   0.1075182813E-15  -0.7597749437E-16   0.7098281030E-16
   0.9058087158E+00   0.1046887104E+01   0.1046887104E+01   0.1617431641E-02  -0.8083599911E-03  -0.8083599911E-03  -0.9580871582E-01   0.4769546386E-01   0.4769546386E-01   0.0000000000E+00   0.0000000000E+00   0.0000000000E+00   0.0000000000E+00   0.0000000000E+00   0.0000000000E+00  -0.1251229351E+01  -0.2045265758E-13  -0.2045266684E-13   0.4404685477E-16   0.1234015666E-15  -0.1200643268E-15
   0.0000000000E+00   0.1046887104E+01   0.1046887104E+01   0.0000000000E+00  -0.8083599911E-03  -0.8083599911E-03   0.0000000000E+00   0.4769546386E-01   0.4769546386E-01   0.0000000000E+00   0.0000000000E+00   0.0000000000E+00   0.0000000000E+00   0.0000000000E+00   0.0000000000E+00  -0.1251229351E+01  -0.5469073247E-13  -0.5479014337E-13  -0.5781607077E-16   0.1070208194E-15   0.3742209905E-16
   0.1811617432E+01   0.0000000000E+00   0.1868234351E-17   0.3234863281E-02   0.0000000000E+00  -0.1244688821E-16  -0.1916174316E+00   0.0000000000E+00   0.1431512256E-16   0.0000000000E+00   0.0000000000E+00   0.0000000000E+00   0.0000000000E+00   0.0000000000E+00   0.0000000000E+00  -0.1251229352E+01  -0.3319763224E-13  -0.3325092886E-13   0.5657248375E-16  -0.1520314548E-15   0.6593140937E-16
   0.1811617432E+01   0.1046887104E+01   0.1437283959E-16   0.3234863281E-02  -0.8083599911E-03   0.1388504022E-16  -0.1916174316E+00   0.4769546386E-01   0.4877993640E-18   0.0000000000E+00   0.0000000000E+00   0.0000000000E+00   0.0000000000E+00   0.0000000000E+00   0.0000000000E+00  -0.1251229352E+01   0.1000855045E-13   0.9974751708E-14   0.4254973397E-16  -0.2457066689E-16  -0.1221713788E-15
   0.1811617432E+01   0.0000000000E+00   0.1046887104E+01   0.3234863281E-02   0.0000000000E+00  -0.8083599911E-03  -0.1916174316E+00   0.0000000000E+00   0.4769546386E-01   0.0000000000E+00   0.0000000000E+00   0.0000000000E+00   0.0000000000E+00   0.0000000000E+00   0.0000000000E+00  -0.1251229352E+01   0.1073626387E-13   0.1092280899E-13   0.6806614485E-16   0.1543712516E-15   0.2868750706E-16
   0.1811617432E+01   0.1046887104E+01   0.1046887104E+01   0.3234863281E-02  -0.8083599911E-03  -0.8083599911E-03  -0.1916174316E+00   0.4769546386E-01   0.4769546386E-01   0.0000000000E+00   0.0000000000E+00   0.0000000000E+00   0.0000000000E+00   0.0000000000E+00   0.0000000000E+00  -0.1251229351E+01   0.1926692883E-14   0.2132743317E-14   0.4987854190E-16  -0.1198932530E-15   0.5197415417E-16
     1     2     3     4     5     6     7     8
     2     9    10     3     6    11    12     7
 VARIABLES = X,Y,Z,DU1,DU2,DU3,U1,U2,U3,e11,e22,e33,e12,e13,e23,S11,S22,S33,S12,S13,S23
 ZONE, T="0.4579D+01" F=FEPOINT, I=   12 J=    2 ET=BRICK
   0.0000000000E+00   0.0000000000E+00   0.0000000000E+00   0.0000000000E+00   0.0000000000E+00   0.0000000000E+00   0.0000000000E+00   0.0000000000E+00   0.0000000000E+00   0.0000000000E+00   0.0000000000E+00   0.0000000000E+00   0.0000000000E+00   0.0000000000E+00   0.0000000000E+00  -0.1237245100E+01  -0.1084622823E-13  -0.1097262577E-13   0.3768377068E-17  -0.3306939369E-16  -0.7786227789E-17
   0.9158087158E+00   0.0000000000E+00  -0.1213324812E-16   0.1000000000E-01   0.0000000000E+00  -0.7835828242E-17  -0.9419128418E-01   0.0000000000E+00  -0.4297419880E-17   0.0000000000E+00   0.0000000000E+00   0.0000000000E+00   0.0000000000E+00   0.0000000000E+00   0.0000000000E+00  -0.1237245100E+01  -0.3030638894E-14  -0.3131498032E-14  -0.7697042464E-16  -0.8086268214E-16   0.2953098825E-16
   0.9158087158E+00   0.1041889435E+01  -0.5842950895E-17   0.1000000000E-01  -0.4997669291E-02  -0.1122960147E-16  -0.9419128418E-01   0.4688710386E-01   0.5386650571E-17   0.0000000000E+00   0.0000000000E+00   0.0000000000E+00   0.0000000000E+00   0.0000000000E+00   0.0000000000E+00  -0.1237245099E+01  -0.2397888531E-13  -0.2407976793E-13   0.2391776133E-17   0.1496337554E-15  -0.1832526633E-15
   0.0000000000E+00   0.1041889435E+01   0.1311753947E-17   0.0000000000E+00  -0.4997669291E-02  -0.3710299353E-17   0.0000000000E+00   0.4688710386E-01   0.5022053299E-17   0.0000000000E+00   0.0000000000E+00   0.0000000000E+00   0.0000000000E+00   0.0000000000E+00   0.0000000000E+00  -0.1237245099E+01   0.1741411783E-13   0.1746455914E-13   0.1130535924E-15  -0.5498274838E-16   0.1451392786E-16
   0.0000000000E+00   0.0000000000E+00   0.1041889435E+01   0.0000000000E+00   0.0000000000E+00  -0.4997669291E-02   0.0000000000E+00   0.0000000000E+00   0.4688710386E-01   0.0000000000E+00   0.0000000000E+00   0.0000000000E+00   0.0000000000E+00   0.0000000000E+00   0.0000000000E+00  -0.1237245099E+01  -0.1972252857E-13  -0.1972024558E-13   0.3680973333E-17  -0.8369973203E-16   0.6405984777E-16
   0.9158087158E+00   0.0000000000E+00   0.1041889435E+01   0.1000000000E-01   0.0000000000E+00  -0.4997669291E-02  -0.9419128418E-01   0.0000000000E+00   0.4688710386E-01   0.0000000000E+00   0.0000000000E+00   0.0000000000E+00   0.0000000000E+00   0.0000000000E+00   0.0000000000E+00  -0.1237245099E+01  -0.2181668683E-13  -0.2182125281E-13  -0.2674364345E-16   0.6019899129E-16   0.1016871388E-15
   0.9158087158E+00   0.1041889435E+01   0.1041889435E+01   0.1000000000E-01  -0.4997669291E-02  -0.4997669291E-02  -0.9419128418E-01   0.4688710386E-01   0.4688710386E-01   0.0000000000E+00   0.0000000000E+00   0.0000000000E+00   0.0000000000E+00   0.0000000000E+00   0.0000000000E+00  -0.1237245099E+01  -0.8899999255E-15  -0.8946300399E-15  -0.6403150384E-16   0.9202309027E-16  -0.8865556591E-16
   0.0000000000E+00   0.1041889435E+01   0.1041889435E+01   0.0000000000E+00  -0.4997669291E-02  -0.4997669291E-02   0.0000000000E+00   0.4688710386E-01   0.4688710386E-01   0.0000000000E+00   0.0000000000E+00   0.0000000000E+00   0.0000000000E+00   0.0000000000E+00   0.0000000000E+00  -0.1237245099E+01  -0.1209337477E-13  -0.1191423261E-13  -0.6135784108E-16  -0.5990742150E-16   0.6317928212E-16
   0.1831617432E+01   0.0000000000E+00  -0.2821616228E-16   0.2000000000E-01   0.0000000000E+00  -0.3008439663E-16  -0.1883825684E+00   0.0000000000E+00   0.1868234351E-17   0.0000000000E+00   0.0000000000E+00   0.0000000000E+00   0.0000000000E+00   0.0000000000E+00   0.0000000000E+00  -0.1237245100E+01   0.2102577845E-13   0.2102512491E-13   0.9032114058E-16   0.6414436241E-16   0.1207428020E-15
   0.1831617432E+01   0.1041889435E+01  -0.3514175794E-17   0.2000000000E-01  -0.4997669291E-02  -0.1788701538E-16  -0.1883825684E+00   0.4688710386E-01   0.1437283959E-16   0.0000000000E+00   0.0000000000E+00   0.0000000000E+00   0.0000000000E+00   0.0000000000E+00   0.0000000000E+00  -0.1237245099E+01  -0.4885217196E-13  -0.4902962997E-13   0.4422924379E-16  -0.2079214207E-15   0.1283052145E-15
   0.1831617432E+01   0.0000000000E+00   0.1041889435E+01   0.2000000000E-01   0.0000000000E+00  -0.4997669291E-02  -0.1883825684E+00   0.0000000000E+00   0.4688710386E-01   0.0000000000E+00   0.0000000000E+00   0.0000000000E+00   0.0000000000E+00   0.0000000000E+00   0.0000000000E+00  -0.1237245099E+01  -0.2841223349E-13  -0.2814455496E-13   0.7458418716E-16   0.1526173964E-15  -0.1661849947E-16
   0.1831617432E+01   0.1041889435E+01   0.1041889435E+01   0.2000000000E-01  -0.4997669291E-02  -0.4997669291E-02  -0.1883825684E+00   0.4688710386E-01   0.4688710386E-01   0.0000000000E+00   0.0000000000E+00   0.0000000000E+00   0.0000000000E+00   0.0000000000E+00   0.0000000000E+00  -0.1237245099E+01   0.5737361674E-14   0.5828134088E-14   0.7040942017E-16  -0.2750221502E-15  -0.5708978268E-16
     1     2     3     4     5     6     7     8
     2     9    10     3     6    11    12     7
 VARIABLES = X,Y,Z,DU1,DU2,DU3,U1,U2,U3,e11,e22,e33,e12,e13,e23,S11,S22,S33,S12,S13,S23
 ZONE, T="0.4629D+01" F=FEPOINT, I=   12 J=    2 ET=BRICK
   0.0000000000E+00   0.0000000000E+00   0.0000000000E+00   0.0000000000E+00   0.0000000000E+00   0.0000000000E+00   0.0000000000E+00   0.0000000000E+00   0.0000000000E+00   0.0000000000E+00   0.0000000000E+00   0.0000000000E+00   0.0000000000E+00   0.0000000000E+00   0.0000000000E+00  -0.1221675199E+01  -0.1160465323E-12  -0.1160789016E-12  -0.9304810714E-17  -0.3390725972E-16  -0.3168989584E-16
   0.9258087158E+00   0.0000000000E+00  -0.3453159225E-17   0.1000000000E-01   0.0000000000E+00   0.8680088897E-17  -0.8419128418E-01   0.0000000000E+00  -0.1213324812E-16   0.0000000000E+00   0.0000000000E+00   0.0000000000E+00   0.0000000000E+00   0.0000000000E+00   0.0000000000E+00  -0.1221675199E+01  -0.9312466876E-13  -0.9320984577E-13  -0.1795535136E-15  -0.1565243912E-15   0.5400352537E-16
   0.9258087158E+00   0.1036892030E+01   0.3074861979E-17   0.1000000000E-01  -0.4997405017E-02   0.8917812874E-17  -0.8419128418E-01   0.4188943457E-01  -0.5842950895E-17   0.0000000000E+00   0.0000000000E+00   0.0000000000E+00   0.0000000000E+00   0.0000000000E+00   0.0000000000E+00  -0.1221675199E+01  -0.9315771966E-13  -0.9324290527E-13  -0.8755236915E-16   0.2258831575E-15  -0.6967248580E-16
   0.0000000000E+00   0.1036892030E+01  -0.8041849212E-17   0.0000000000E+00  -0.4997405017E-02  -0.9353603159E-17   0.0000000000E+00   0.4188943457E-01   0.1311753947E-17   0.0000000000E+00   0.0000000000E+00   0.0000000000E+00   0.0000000000E+00   0.0000000000E+00   0.0000000000E+00  -0.1221675199E+01  -0.9805947913E-13  -0.9789353861E-13   0.6721307936E-16   0.2729210588E-16  -0.1125129005E-15
   0.0000000000E+00   0.0000000000E+00   0.1036892030E+01   0.0000000000E+00   0.0000000000E+00  -0.4997405017E-02   0.0000000000E+00   0.0000000000E+00   0.4188943457E-01   0.0000000000E+00   0.0000000000E+00   0.0000000000E+00   0.0000000000E+00   0.0000000000E+00   0.0000000000E+00  -0.1221675199E+01  -0.1156823297E-12  -0.1157840306E-12   0.4973819862E-16   0.8543477123E-16   0.2414845712E-15
   0.9258087158E+00   0.0000000000E+00   0.1036892030E+01   0.1000000000E-01   0.0000000000E+00  -0.4997405017E-02  -0.8419128418E-01   0.0000000000E+00   0.4188943457E-01   0.0000000000E+00   0.0000000000E+00   0.0000000000E+00   0.0000000000E+00   0.0000000000E+00   0.0000000000E+00  -0.1221675199E+01  -0.1015870000E-12  -0.1014497000E-12  -0.3041278289E-16  -0.2145649930E-15   0.7206912843E-16
   0.9258087158E+00   0.1036892030E+01   0.1036892030E+01   0.1000000000E-01  -0.4997405017E-02  -0.4997405017E-02  -0.8419128418E-01   0.4188943457E-01   0.4188943457E-01   0.0000000000E+00   0.0000000000E+00   0.0000000000E+00   0.0000000000E+00   0.0000000000E+00   0.0000000000E+00  -0.1221675199E+01  -0.1014636523E-12  -0.1013263609E-12   0.7174658535E-17   0.1565250206E-15  -0.1516492353E-15
   0.0000000000E+00   0.1036892030E+01   0.1036892030E+01   0.0000000000E+00  -0.4997405017E-02  -0.4997405017E-02   0.0000000000E+00   0.4188943457E-01   0.4188943457E-01   0.0000000000E+00   0.0000000000E+00   0.0000000000E+00   0.0000000000E+00   0.0000000000E+00   0.0000000000E+00  -0.1221675199E+01  -0.9770089090E-13  -0.9760428199E-13  -0.8856632344E-16  -0.7204644984E-16   0.1116593185E-15
   0.1851617432E+01   0.0000000000E+00  -0.6294285918E-17   0.2000000000E-01   0.0000000000E+00   0.2192187636E-16  -0.1683825684E+00   0.0000000000E+00  -0.2821616228E-16   0.0000000000E+00   0.0000000000E+00   0.0000000000E+00   0.0000000000E+00   0.0000000000E+00   0.0000000000E+00  -0.1221675199E+01  -0.9870502018E-13  -0.9879463221E-13   0.2693886334E-16  -0.2635448127E-15   0.1358503913E-15
   0.1851617432E+01   0.1036892030E+01   0.1481060314E-16   0.2000000000E-01  -0.4997405017E-02   0.1832477893E-16  -0.1683825684E+00   0.4188943457E-01  -0.3514175794E-17   0.0000000000E+00   0.0000000000E+00   0.0000000000E+00   0.0000000000E+00   0.0000000000E+00   0.0000000000E+00  -0.1221675199E+01  -0.1166743614E-12  -0.1169622191E-12   0.5060759447E-16   0.1528338484E-15  -0.7783973194E-16
   0.1851617432E+01   0.0000000000E+00   0.1036892030E+01   0.2000000000E-01   0.0000000000E+00  -0.4997405017E-02  -0.1683825684E+00   0.0000000000E+00   0.4188943457E-01   0.0000000000E+00   0.0000000000E+00   0.0000000000E+00   0.0000000000E+00   0.0000000000E+00   0.0000000000E+00  -0.1221675199E+01  -0.9486440953E-13  -0.9466871945E-13   0.9114406193E-16   0.5480756470E-15  -0.1070524465E-15
   0.1851617432E+01   0.1036892030E+01   0.1036892030E+01   0.2000000000E-01  -0.4997405017E-02  -0.4997405017E-02  -0.1683825684E+00   0.4188943457E-01   0.4188943457E-01   0.0000000000E+00   0.0000000000E+00   0.0000000000E+00   0.0000000000E+00   0.0000000000E+00   0.0000000000E+00  -0.1221675199E+01  -0.1129119501E-12  -0.1129145057E-12  -0.7659169511E-16  -0.4256308115E-15   0.5253328595E-17
     1     2     3     4     5     6     7     8
     2     9    10     3     6    11    12     7
 VARIABLES = X,Y,Z,DU1,DU2,DU3,U1,U2,U3,e11,e22,e33,e12,e13,e23,S11,S22,S33,S12,S13,S23
 ZONE, T="0.4679D+01" F=FEPOINT, I=   12 J=    2 ET=BRICK
   0.0000000000E+00   0.0000000000E+00   0.0000000000E+00   0.0000000000E+00   0.0000000000E+00   0.0000000000E+00   0.0000000000E+00   0.0000000000E+00   0.0000000000E+00   0.0000000000E+00   0.0000000000E+00   0.0000000000E+00   0.0000000000E+00   0.0000000000E+00   0.0000000000E+00  -0.1204084587E+01  -0.1974425301E-12  -0.1974062300E-12   0.2938996645E-16   0.2394687542E-16   0.1620587933E-15
   0.9358087158E+00   0.0000000000E+00   0.1857354028E-18   0.1000000000E-01   0.0000000000E+00   0.3638894628E-17  -0.7419128418E-01   0.0000000000E+00  -0.3453159225E-17   0.0000000000E+00   0.0000000000E+00   0.0000000000E+00   0.0000000000E+00   0.0000000000E+00   0.0000000000E+00  -0.1204084587E+01  -0.2182159689E-12  -0.2182536206E-12  -0.9720209050E-16  -0.7314208448E-17  -0.3195174398E-17
   0.9358087158E+00   0.1031894961E+01   0.6313944757E-17   0.1000000000E-01  -0.4997068231E-02   0.3239082778E-17  -0.7419128418E-01   0.3689202956E-01   0.3074861979E-17   0.0000000000E+00   0.0000000000E+00   0.0000000000E+00   0.0000000000E+00   0.0000000000E+00   0.0000000000E+00  -0.1204084587E+01  -0.2306833306E-12  -0.2308238489E-12  -0.7631707592E-16   0.2249942783E-16   0.4720906825E-16
   0.0000000000E+00   0.1031894961E+01   0.2015643480E-16   0.0000000000E+00  -0.4997068231E-02   0.2819828401E-16   0.0000000000E+00   0.3689202956E-01  -0.8041849212E-17   0.0000000000E+00   0.0000000000E+00   0.0000000000E+00   0.0000000000E+00   0.0000000000E+00   0.0000000000E+00  -0.1204084587E+01  -0.2533328107E-12  -0.2532450773E-12  -0.2104217553E-15  -0.2677649577E-16  -0.1472000057E-15
   0.0000000000E+00   0.0000000000E+00   0.1031894961E+01   0.0000000000E+00   0.0000000000E+00  -0.4997068231E-02   0.0000000000E+00   0.0000000000E+00   0.3689202956E-01   0.0000000000E+00   0.0000000000E+00   0.0000000000E+00   0.0000000000E+00   0.0000000000E+00   0.0000000000E+00  -0.1204084587E+01  -0.2381894610E-12  -0.2379447246E-12   0.6092543034E-17  -0.8638607404E-16  -0.6105583620E-16
   0.9358087158E+00   0.0000000000E+00   0.1031894961E+01   0.1000000000E-01   0.0000000000E+00  -0.4997068231E-02  -0.7419128418E-01   0.0000000000E+00   0.3689202956E-01   0.0000000000E+00   0.0000000000E+00   0.0000000000E+00   0.0000000000E+00   0.0000000000E+00   0.0000000000E+00  -0.1204084587E+01  -0.2329857378E-12  -0.2328929600E-12  -0.7910209552E-16   0.1282915264E-15   0.1251452251E-15
   0.9358087158E+00   0.1031894961E+01   0.1031894961E+01   0.1000000000E-01  -0.4997068231E-02  -0.4997068231E-02  -0.7419128418E-01   0.3689202956E-01   0.3689202956E-01   0.0000000000E+00   0.0000000000E+00   0.0000000000E+00   0.0000000000E+00   0.0000000000E+00   0.0000000000E+00  -0.1204084587E+01  -0.2248145909E-12  -0.2248246796E-12  -0.1154121379E-15  -0.1143420528E-15  -0.5702241836E-18
   0.0000000000E+00   0.1031894961E+01   0.1031894961E+01   0.0000000000E+00  -0.4997068231E-02  -0.4997068231E-02   0.0000000000E+00   0.3689202956E-01   0.3689202956E-01   0.0000000000E+00   0.0000000000E+00   0.0000000000E+00   0.0000000000E+00   0.0000000000E+00   0.0000000000E+00  -0.1204084587E+01  -0.1799729030E-12  -0.1796767333E-12   0.1969868168E-15  -0.7171257463E-16  -0.7807598353E-16
   0.1871617432E+01   0.0000000000E+00  -0.7081156562E-17   0.2000000000E-01   0.0000000000E+00  -0.7868706441E-18  -0.1483825684E+00   0.0000000000E+00  -0.6294285918E-17   0.0000000000E+00   0.0000000000E+00   0.0000000000E+00   0.0000000000E+00   0.0000000000E+00   0.0000000000E+00  -0.1204084587E+01  -0.2522619553E-12  -0.2520172189E-12  -0.1155132708E-15   0.3946749247E-16  -0.6267672165E-16
   0.1871617432E+01   0.1031894961E+01  -0.1734633762E-16   0.2000000000E-01  -0.4997068231E-02  -0.3215694076E-16  -0.1483825684E+00   0.3689202956E-01   0.1481060314E-16   0.0000000000E+00   0.0000000000E+00   0.0000000000E+00   0.0000000000E+00   0.0000000000E+00   0.0000000000E+00  -0.1204084587E+01  -0.2008460595E-12  -0.2005976304E-12  -0.1073164999E-16   0.4507339267E-15   0.3030611691E-16
   0.1871617432E+01   0.0000000000E+00   0.1031894961E+01   0.2000000000E-01   0.0000000000E+00  -0.4997068231E-02  -0.1483825684E+00   0.0000000000E+00   0.3689202956E-01   0.0000000000E+00   0.0000000000E+00   0.0000000000E+00   0.0000000000E+00   0.0000000000E+00   0.0000000000E+00  -0.1204084587E+01  -0.1995166859E-12  -0.1997412448E-12   0.8306896508E-16  -0.3683848762E-15  -0.9934074980E-16
   0.1871617432E+01   0.1031894961E+01   0.1031894961E+01   0.2000000000E-01  -0.4997068231E-02  -0.4997068231E-02  -0.1483825684E+00   0.3689202956E-01   0.3689202956E-01   0.0000000000E+00   0.0000000000E+00   0.0000000000E+00   0.0000000000E+00   0.0000000000E+00   0.0000000000E+00  -0.1204084587E+01  -0.2204787905E-12  -0.2206996566E-12   0.8398733640E-16   0.9722837313E-17  -0.8341048895E-16
     1     2     3     4     5     6     7     8
     2     9    10     3     6    11    12     7
 VARIABLES = X,Y,Z,DU1,DU2,DU3,U1,U2,U3,e11,e22,e33,e12,e13,e23,S11,S22,S33,S12,S13,S23
 ZONE, T="0.4729D+01" F=FEPOINT, I=   12 J=    2 ET=BRICK
   0.0000000000E+00   0.0000000000E+00   0.0000000000E+00   0.0000000000E+00   0.0000000000E+00   0.0000000000E+00   0.0000000000E+00   0.0000000000E+00   0.0000000000E+00   0.0000000000E+00   0.0000000000E+00   0.0000000000E+00   0.0000000000E+00   0.0000000000E+00   0.0000000000E+00  -0.1183824715E+01  -0.5435572058E-12  -0.5437807506E-12  -0.1379279335E-16  -0.5530341396E-16  -0.9351618607E-16
   0.9458087158E+00   0.0000000000E+00  -0.1298303218E-16   0.1000000000E-01   0.0000000000E+00  -0.1316876758E-16  -0.6419128418E-01   0.0000000000E+00   0.1857354028E-18   0.0000000000E+00   0.0000000000E+00   0.0000000000E+00   0.0000000000E+00   0.0000000000E+00   0.0000000000E+00  -0.1183824715E+01  -0.5423337086E-12  -0.5425564462E-12   0.1863526257E-15   0.9505210834E-16   0.5566843719E-16
   0.9458087158E+00   0.1026898338E+01  -0.4622553971E-17   0.1000000000E-01  -0.4996623355E-02  -0.1093649873E-16  -0.6419128418E-01   0.3189496133E-01   0.6313944757E-17   0.0000000000E+00   0.0000000000E+00   0.0000000000E+00   0.0000000000E+00   0.0000000000E+00   0.0000000000E+00  -0.1183824714E+01  -0.5279745198E-12  -0.5280495446E-12   0.1097715024E-15  -0.8484833418E-16  -0.8069357225E-16
   0.0000000000E+00   0.1026898338E+01  -0.1243579777E-16   0.0000000000E+00  -0.4996623355E-02  -0.3259223257E-16   0.0000000000E+00   0.3189496133E-01   0.2015643480E-16   0.0000000000E+00   0.0000000000E+00   0.0000000000E+00   0.0000000000E+00   0.0000000000E+00   0.0000000000E+00  -0.1183824714E+01  -0.5352559080E-12  -0.5351584328E-12  -0.4358838491E-16   0.5970065372E-16  -0.2148591538E-15
   0.0000000000E+00   0.0000000000E+00   0.1026898338E+01   0.0000000000E+00   0.0000000000E+00  -0.4996623355E-02   0.0000000000E+00   0.0000000000E+00   0.3189496133E-01   0.0000000000E+00   0.0000000000E+00   0.0000000000E+00   0.0000000000E+00   0.0000000000E+00   0.0000000000E+00  -0.1183824714E+01  -0.5331898175E-12  -0.5331500938E-12   0.1419698067E-16   0.1996455112E-16   0.1257766563E-15
   0.9458087158E+00   0.0000000000E+00   0.1026898338E+01   0.1000000000E-01   0.0000000000E+00  -0.4996623355E-02  -0.6419128418E-01   0.0000000000E+00   0.3189496133E-01   0.0000000000E+00   0.0000000000E+00   0.0000000000E+00   0.0000000000E+00   0.0000000000E+00   0.0000000000E+00  -0.1183824714E+01  -0.5321067009E-12  -0.5320662228E-12  -0.2925457651E-15   0.1612280999E-15   0.8263703776E-16
   0.9458087158E+00   0.1026898338E+01   0.1026898338E+01   0.1000000000E-01  -0.4996623355E-02  -0.4996623355E-02  -0.6419128418E-01   0.3189496133E-01   0.3189496133E-01   0.0000000000E+00   0.0000000000E+00   0.0000000000E+00   0.0000000000E+00   0.0000000000E+00   0.0000000000E+00  -0.1183824714E+01  -0.5384047748E-12  -0.5382166505E-12  -0.2213662651E-15  -0.1953671612E-15  -0.9213010706E-16
   0.0000000000E+00   0.1026898338E+01   0.1026898338E+01   0.0000000000E+00  -0.4996623355E-02  -0.4996623355E-02   0.0000000000E+00   0.3189496133E-01   0.3189496133E-01   0.0000000000E+00   0.0000000000E+00   0.0000000000E+00   0.0000000000E+00   0.0000000000E+00   0.0000000000E+00  -0.1183824714E+01  -0.5459164525E-12  -0.5455558681E-12   0.2793178981E-16  -0.3539908610E-16   0.6674780394E-16
   0.1891617432E+01   0.0000000000E+00  -0.2460083370E-16   0.2000000000E-01   0.0000000000E+00  -0.1751967714E-16  -0.1283825684E+00   0.0000000000E+00  -0.7081156562E-17   0.0000000000E+00   0.0000000000E+00   0.0000000000E+00   0.0000000000E+00   0.0000000000E+00   0.0000000000E+00  -0.1183824715E+01  -0.5451392197E-12  -0.5452413591E-12   0.7179074765E-16   0.1665632210E-15   0.2013895438E-15
   0.1891617432E+01   0.1026898338E+01  -0.4210743783E-18   0.2000000000E-01  -0.4996623355E-02   0.1692526325E-16  -0.1283825684E+00   0.3189496133E-01  -0.1734633762E-16   0.0000000000E+00   0.0000000000E+00   0.0000000000E+00   0.0000000000E+00   0.0000000000E+00   0.0000000000E+00  -0.1183824714E+01  -0.5346596694E-12  -0.5349393516E-12   0.1466208572E-15  -0.6211573646E-16   0.3314764043E-16
   0.1891617432E+01   0.0000000000E+00   0.1026898338E+01   0.2000000000E-01   0.0000000000E+00  -0.4996623355E-02  -0.1283825684E+00   0.0000000000E+00   0.3189496133E-01   0.0000000000E+00   0.0000000000E+00   0.0000000000E+00   0.0000000000E+00   0.0000000000E+00   0.0000000000E+00  -0.1183824714E+01  -0.5347338422E-12  -0.5345727078E-12  -0.8662692795E-16  -0.1694481735E-16   0.8785253345E-16
   0.1891617432E+01   0.1026898338E+01   0.1026898338E+01   0.2000000000E-01  -0.4996623355E-02  -0.4996623355E-02  -0.1283825684E+00   0.3189496133E-01   0.3189496133E-01   0.0000000000E+00   0.0000000000E+00   0.0000000000E+00   0.0000000000E+00   0.0000000000E+00   0.0000000000E+00  -0.1183824714E+01  -0.5453304447E-12  -0.5453469675E-12  -0.1134632824E-15  -0.9191688706E-17  -0.1228748401E-15
     1     2     3     4     5     6     7     8
     2     9    10     3     6    11    12     7
 VARIABLES = X,Y,Z,DU1,DU2,DU3,U1,U2,U3,e11,e22,e33,e12,e13,e23,S11,S22,S33,S12,S13,S23
 ZONE, T="0.4779D+01" F=FEPOINT, I=   12 J=    2 ET=BRICK
   0.0000000000E+00   0.0000000000E+00   0.0000000000E+00   0.0000000000E+00   0.0000000000E+00   0.0000000000E+00   0.0000000000E+00   0.0000000000E+00   0.0000000000E+00   0.0000000000E+00   0.0000000000E+00   0.0000000000E+00   0.0000000000E+00   0.0000000000E+00   0.0000000000E+00  -0.1159863351E+01  -0.1520630424E-11  -0.1520522983E-11   0.1604054637E-16  -0.3668750255E-16  -0.2314169776E-16
   0.9558087158E+00   0.0000000000E+00  -0.1346817683E-17   0.1000000000E-01   0.0000000000E+00   0.1163621450E-16  -0.5419128418E-01   0.0000000000E+00  -0.1298303218E-16   0.0000000000E+00   0.0000000000E+00   0.0000000000E+00   0.0000000000E+00   0.0000000000E+00   0.0000000000E+00  -0.1159863351E+01  -0.1520304612E-11  -0.1520203316E-11  -0.1452344471E-15  -0.8802126111E-16   0.4226258698E-16
   0.9558087158E+00   0.1021902332E+01   0.2733189272E-18   0.1000000000E-01  -0.4996006439E-02   0.4895872898E-17  -0.5419128418E-01   0.2689833797E-01  -0.4622553971E-17   0.0000000000E+00   0.0000000000E+00   0.0000000000E+00   0.0000000000E+00   0.0000000000E+00   0.0000000000E+00  -0.1159863351E+01  -0.1516899930E-11  -0.1516884692E-11  -0.1143821069E-15   0.2284938405E-15  -0.3048937438E-16
   0.0000000000E+00   0.1021902332E+01  -0.2906971917E-17   0.0000000000E+00  -0.4996006439E-02   0.9528825850E-17   0.0000000000E+00   0.2689833797E-01  -0.1243579777E-16   0.0000000000E+00   0.0000000000E+00   0.0000000000E+00   0.0000000000E+00   0.0000000000E+00   0.0000000000E+00  -0.1159863351E+01  -0.1506562116E-11  -0.1506569715E-11   0.1907867152E-16  -0.3661465035E-16  -0.1869813080E-16
   0.0000000000E+00   0.0000000000E+00   0.1021902332E+01   0.0000000000E+00   0.0000000000E+00  -0.4996006439E-02   0.0000000000E+00   0.0000000000E+00   0.2689833797E-01   0.0000000000E+00   0.0000000000E+00   0.0000000000E+00   0.0000000000E+00   0.0000000000E+00   0.0000000000E+00  -0.1159863351E+01  -0.1509026572E-11  -0.1509024522E-11  -0.5354165140E-16   0.8170315020E-16  -0.6242349286E-16
   0.9558087158E+00   0.0000000000E+00   0.1021902332E+01   0.1000000000E-01   0.0000000000E+00  -0.4996006439E-02  -0.5419128418E-01   0.0000000000E+00   0.2689833797E-01   0.0000000000E+00   0.0000000000E+00   0.0000000000E+00   0.0000000000E+00   0.0000000000E+00   0.0000000000E+00  -0.1159863351E+01  -0.1511971160E-11  -0.1511975219E-11   0.1181020648E-15  -0.1282735491E-15  -0.7847631834E-16
   0.9558087158E+00   0.1021902332E+01   0.1021902332E+01   0.1000000000E-01  -0.4996006439E-02  -0.4996006439E-02  -0.5419128418E-01   0.2689833797E-01   0.2689833797E-01   0.0000000000E+00   0.0000000000E+00   0.0000000000E+00   0.0000000000E+00   0.0000000000E+00   0.0000000000E+00  -0.1159863351E+01  -0.1518974665E-11  -0.1519064894E-11   0.1535818374E-15   0.1941404144E-15   0.1209949537E-16
   0.0000000000E+00   0.1021902332E+01   0.1021902332E+01   0.0000000000E+00  -0.4996006439E-02  -0.4996006439E-02   0.0000000000E+00   0.2689833797E-01   0.2689833797E-01   0.0000000000E+00   0.0000000000E+00   0.0000000000E+00   0.0000000000E+00   0.0000000000E+00   0.0000000000E+00  -0.1159863351E+01  -0.1520979066E-11  -0.1521092122E-11  -0.5163450819E-16  -0.1113977759E-15   0.1711848498E-15
   0.1911617432E+01   0.0000000000E+00   0.1154360687E-18   0.2000000000E-01   0.0000000000E+00   0.2471626977E-16  -0.1083825684E+00   0.0000000000E+00  -0.2460083370E-16   0.0000000000E+00   0.0000000000E+00   0.0000000000E+00   0.0000000000E+00   0.0000000000E+00   0.0000000000E+00  -0.1159863351E+01  -0.1505616816E-11  -0.1505482894E-11   0.7995840611E-16   0.2194994707E-15   0.4427904269E-17
   0.1911617432E+01   0.1021902332E+01   0.2382324415E-17   0.2000000000E-01  -0.4996006439E-02   0.2803398794E-17  -0.1083825684E+00   0.2689833797E-01  -0.4210743783E-18   0.0000000000E+00   0.0000000000E+00   0.0000000000E+00   0.0000000000E+00   0.0000000000E+00   0.0000000000E+00  -0.1159863351E+01  -0.1523283877E-11  -0.1523389888E-11   0.5803048272E-17  -0.5614261505E-15   0.1718605755E-15
   0.1911617432E+01   0.0000000000E+00   0.1021902332E+01   0.2000000000E-01   0.0000000000E+00  -0.4996006439E-02  -0.1083825684E+00   0.0000000000E+00   0.2689833797E-01   0.0000000000E+00   0.0000000000E+00   0.0000000000E+00   0.0000000000E+00   0.0000000000E+00   0.0000000000E+00  -0.1159863351E+01  -0.1500736257E-11  -0.1500707878E-11  -0.1130204457E-15   0.6509785220E-16  -0.4261737856E-16
   0.1911617432E+01   0.1021902332E+01   0.1021902332E+01   0.2000000000E-01  -0.4996006439E-02  -0.4996006439E-02  -0.1083825684E+00   0.2689833797E-01   0.2689833797E-01   0.0000000000E+00   0.0000000000E+00   0.0000000000E+00   0.0000000000E+00   0.0000000000E+00   0.0000000000E+00  -0.1159863350E+01  -0.1513199172E-11  -0.1513410600E-11  -0.9522693234E-16   0.5514169005E-16  -0.1113608507E-15
     1     2     3     4     5     6     7     8
     2     9    10     3     6    11    12     7
