 VARIABLES = X,Y,DU1,DU2,U1,U2,S11,S22,S12
 ZONE, T="0.1000D+01" F=FEPOINT, I=    9 J=    8
   0.0000000000E+00   0.0000000000E+00   0.0000000000E+00   0.0000000000E+00   0.0000000000E+00   0.0000000000E+00   0.5984123446E+01   0.1673513932E+01   0.0000000000E+00
   0.2100000000E+01   0.2700514846E-01   0.1000000000E+00   0.2700514846E-01   0.0000000000E+00   0.0000000000E+00   0.4106409197E+01  -0.6178079569E-01   0.0000000000E+00
   0.2100000000E+01   0.1978486520E+01   0.1000000000E+00  -0.2151347980E-01   0.0000000000E+00   0.0000000000E+00   0.6131228120E+01  -0.6491005276E+00   0.0000000000E+00
   0.1053361698E+01   0.2097422529E-01   0.5336169841E-01   0.2097422529E-01   0.0000000000E+00   0.0000000000E+00   0.5865377000E+01   0.3016118342E+00   0.0000000000E+00
   0.2100000000E+01   0.1004881570E+01   0.1000000000E+00   0.4881569621E-02   0.0000000000E+00   0.0000000000E+00   0.5714064411E+01  -0.1815942867E+00   0.0000000000E+00
   0.1044567121E+01   0.1000735464E+01   0.4456712053E-01   0.7354635748E-03   0.0000000000E+00   0.0000000000E+00   0.6057675779E+01   0.5122067013E+00   0.0000000000E+00
   0.0000000000E+00   0.2000000000E+01   0.0000000000E+00   0.0000000000E+00   0.0000000000E+00   0.0000000000E+00   0.6518084176E+01   0.2418668769E+01   0.0000000000E+00
   0.1047107212E+01   0.1985182252E+01   0.4710721162E-01  -0.1481774849E-01   0.0000000000E+00   0.0000000000E+00   0.5729410382E+01   0.7109377466E+00   0.0000000000E+00
   0.0000000000E+00   0.1000000000E+01   0.0000000000E+00   0.0000000000E+00   0.0000000000E+00   0.0000000000E+00   0.5430993125E+01   0.2550346082E+01   0.0000000000E+00
           1           4           6           6
           4           2           5           5
           5           3           6           6
           4           5           6           6
           1           6           9           9
           6           3           8           8
           8           7           9           9
           6           8           9           9
 VARIABLES = X,Y,DU1,DU2,U1,U2,S11,S22,S12
 ZONE, T="0.2000D+01" F=FEPOINT, I=    9 J=    8
   0.0000000000E+00   0.0000000000E+00   0.0000000000E+00   0.0000000000E+00   0.0000000000E+00   0.0000000000E+00   0.1196824689E+02   0.3347027863E+01   0.0000000000E+00
   0.2200000000E+01   0.5401029691E-01   0.1000000000E+00   0.2700514846E-01   0.1000000000E+00   0.2700514846E-01   0.8212818395E+01  -0.1235615914E+00   0.0000000000E+00
   0.2200000000E+01   0.1956973040E+01   0.1000000000E+00  -0.2151347980E-01   0.1000000000E+00  -0.2151347980E-01   0.1226245624E+02  -0.1298201055E+01   0.0000000000E+00
   0.1106723397E+01   0.4194845057E-01   0.5336169841E-01   0.2097422529E-01   0.5336169841E-01   0.2097422529E-01   0.1173075400E+02   0.6032236684E+00   0.0000000000E+00
   0.2200000000E+01   0.1009763139E+01   0.1000000000E+00   0.4881569621E-02   0.1000000000E+00   0.4881569621E-02   0.1142812882E+02  -0.3631885734E+00   0.0000000000E+00
   0.1089134241E+01   0.1001470927E+01   0.4456712053E-01   0.7354635748E-03   0.4456712053E-01   0.7354635748E-03   0.1211535156E+02   0.1024413403E+01   0.0000000000E+00
   0.0000000000E+00   0.2000000000E+01   0.0000000000E+00   0.0000000000E+00   0.0000000000E+00   0.0000000000E+00   0.1303616835E+02   0.4837337539E+01   0.0000000000E+00
   0.1094214423E+01   0.1970364503E+01   0.4710721162E-01  -0.1481774849E-01   0.4710721162E-01  -0.1481774849E-01   0.1145882076E+02   0.1421875493E+01   0.0000000000E+00
   0.0000000000E+00   0.1000000000E+01   0.0000000000E+00   0.0000000000E+00   0.0000000000E+00   0.0000000000E+00   0.1086198625E+02   0.5100692164E+01   0.0000000000E+00
           1           4           6           6
           4           2           5           5
           5           3           6           6
           4           5           6           6
           1           6           9           9
           6           3           8           8
           8           7           9           9
           6           8           9           9
 VARIABLES = X,Y,DU1,DU2,U1,U2,S11,S22,S12
 ZONE, T="0.3000D+01" F=FEPOINT, I=    9 J=    8
   0.0000000000E+00   0.0000000000E+00   0.0000000000E+00   0.0000000000E+00   0.0000000000E+00   0.0000000000E+00   0.1795237034E+02   0.5020541795E+01   0.0000000000E+00
   0.2300000000E+01   0.8101544537E-01   0.1000000000E+00   0.2700514846E-01   0.2000000000E+00   0.5401029691E-01   0.1231922759E+02  -0.1853423871E+00   0.0000000000E+00
   0.2300000000E+01   0.1935459561E+01   0.1000000000E+00  -0.2151347980E-01   0.2000000000E+00  -0.4302695960E-01   0.1839368436E+02  -0.1947301583E+01   0.0000000000E+00
   0.1160085095E+01   0.6292267586E-01   0.5336169841E-01   0.2097422529E-01   0.1067233968E+00   0.4194845057E-01   0.1759613100E+02   0.9048355026E+00   0.0000000000E+00
   0.2300000000E+01   0.1014644709E+01   0.1000000000E+00   0.4881569621E-02   0.2000000000E+00   0.9763139242E-02   0.1714219323E+02  -0.5447828600E+00   0.0000000000E+00
   0.1133701362E+01   0.1002206391E+01   0.4456712053E-01   0.7354635748E-03   0.8913424106E-01   0.1470927150E-02   0.1817302734E+02   0.1536620104E+01   0.0000000000E+00
   0.0000000000E+00   0.2000000000E+01   0.0000000000E+00   0.0000000000E+00   0.0000000000E+00   0.0000000000E+00   0.1955425253E+02   0.7256006308E+01   0.0000000000E+00
   0.1141321635E+01   0.1955546755E+01   0.4710721162E-01  -0.1481774849E-01   0.9421442324E-01  -0.2963549697E-01   0.1718823115E+02   0.2132813240E+01   0.0000000000E+00
   0.0000000000E+00   0.1000000000E+01   0.0000000000E+00   0.0000000000E+00   0.0000000000E+00   0.0000000000E+00   0.1629297937E+02   0.7651038246E+01   0.0000000000E+00
           1           4           6           6
           4           2           5           5
           5           3           6           6
           4           5           6           6
           1           6           9           9
           6           3           8           8
           8           7           9           9
           6           8           9           9
