 VARIABLES = X,Y,DU1,DU2,U1,U2,S11,S22,S12
 ZONE, T="0.1000D+01" F=FEPOINT, I=    9 J=    8
   0.0000000000E+00   0.0000000000E+00   0.0000000000E+00   0.0000000000E+00   0.0000000000E+00   0.0000000000E+00   0.5562692887E+02   0.4942573796E+02   0.3838343987E+01
   0.1882030283E+01   0.1000000000E+00  -0.1179697174E+00   0.1000000000E+00   0.0000000000E+00   0.0000000000E+00  -0.9727861756E+01   0.1521547825E+01   0.3129818125E+02
   0.1730169366E+01   0.2100000000E+01  -0.2698306337E+00   0.1000000000E+00   0.0000000000E+00   0.0000000000E+00  -0.2764833412E+03  -0.2772906127E+03  -0.2080676143E+02
   0.9876971744E+00  -0.2459031893E-01  -0.1230282563E-01  -0.2459031893E-01   0.0000000000E+00   0.0000000000E+00   0.4406403448E+03   0.4533412908E+03   0.1811563637E+02
   0.2186112253E+01   0.1100000000E+01   0.1861122527E+00   0.1000000000E+00   0.0000000000E+00   0.0000000000E+00  -0.2268588963E+03  -0.2345297613E+03   0.1082397459E+00
   0.1086147363E+01   0.1053248454E+01   0.8614736256E-01   0.5324845410E-01   0.0000000000E+00   0.0000000000E+00  -0.4544366879E+02  -0.4894790000E+02  -0.8484208729E+01
   0.0000000000E+00   0.2000000000E+01   0.0000000000E+00   0.0000000000E+00   0.0000000000E+00   0.0000000000E+00   0.1889451112E+01   0.8359524070E+01   0.2655123275E+01
   0.8759092826E+00   0.2092322516E+01  -0.1240907174E+00   0.9232251576E-01   0.0000000000E+00   0.0000000000E+00   0.7642542477E+02   0.9214875956E+02  -0.3938348934E+01
   0.0000000000E+00   0.1000000000E+01   0.0000000000E+00   0.0000000000E+00   0.0000000000E+00   0.0000000000E+00  -0.2589635460E+03  -0.2690059416E+03   0.2699359869E+01
           1           4           6           6
           4           2           5           5
           5           3           6           6
           4           5           6           6
           1           6           9           9
           6           3           8           8
           8           7           9           9
           6           8           9           9
