 VARIABLES = X,Y,DU1,DU2,U1,U2,S11,S22,S12
 ZONE, T="0.1000D+01" F=FEPOINT, I=   45 J=   32
   0.0000000000E+00   0.1001426394E+01   0.0000000000E+00   0.1426394171E-02   0.0000000000E+00   0.0000000000E+00   0.5693482340E+01   0.5541036698E+01  -0.6125350412E-02
   0.2002822633E+00   0.9813872161E+00   0.2822632872E-03   0.1387216126E-02   0.0000000000E+00   0.0000000000E+00   0.5891030074E+01   0.5752482818E+01  -0.2897518770E-01
   0.3401599017E+00   0.1720800258E+01   0.1599016741E-03   0.8002582135E-03   0.0000000000E+00   0.0000000000E+00  -0.1794152384E+01  -0.1854981933E+01  -0.1233205216E-01
   0.0000000000E+00   0.1750817998E+01   0.0000000000E+00   0.8179980670E-03   0.0000000000E+00   0.0000000000E+00  -0.1859937042E+01  -0.1926394202E+01  -0.1806403278E-02
   0.3805386688E+00   0.9213040262E+00   0.5386688068E-03   0.1304026241E-02   0.0000000000E+00   0.0000000000E+00   0.5710332454E+01   0.5606185760E+01  -0.5388562405E-01
   0.6703140281E+00   0.1620749815E+01   0.3140280534E-03   0.7498153242E-03   0.0000000000E+00   0.0000000000E+00  -0.1800458801E+01  -0.1846072469E+01  -0.2353962209E-01
   0.5607790354E+00   0.8311607566E+00   0.7790354207E-03   0.1160756602E-02   0.0000000000E+00   0.0000000000E+00   0.5710898660E+01   0.5656815415E+01  -0.6884566987E-01
   0.9704503477E+00   0.1460672424E+01   0.4503477343E-03   0.6724239250E-03   0.0000000000E+00   0.0000000000E+00  -0.1837287823E+01  -0.1861865380E+01  -0.2971047443E-01
   0.7109788536E+00   0.7109788536E+00   0.9788536344E-03   0.9788536344E-03   0.0000000000E+00   0.0000000000E+00   0.5959398111E+01   0.5959398111E+01  -0.7377974016E-01
   0.1240572932E+01   0.1240572932E+01   0.5729318324E-03   0.5729318324E-03   0.0000000000E+00   0.0000000000E+00  -0.1812114699E+01  -0.1812114699E+01  -0.3157167984E-01
   0.8311607566E+00   0.5607790354E+00   0.1160756602E-02   0.7790354207E-03   0.0000000000E+00   0.0000000000E+00   0.5656815415E+01   0.5710898660E+01  -0.6884566987E-01
   0.1460672424E+01   0.9704503477E+00   0.6724239250E-03   0.4503477343E-03   0.0000000000E+00   0.0000000000E+00  -0.1861865380E+01  -0.1837287823E+01  -0.2971047443E-01
   0.9213040262E+00   0.3805386688E+00   0.1304026241E-02   0.5386688068E-03   0.0000000000E+00   0.0000000000E+00   0.5606185760E+01   0.5710332454E+01  -0.5388562405E-01
   0.1620749815E+01   0.6703140281E+00   0.7498153242E-03   0.3140280534E-03   0.0000000000E+00   0.0000000000E+00  -0.1846072469E+01  -0.1800458801E+01  -0.2353962209E-01
   0.9813872161E+00   0.2002822633E+00   0.1387216126E-02   0.2822632872E-03   0.0000000000E+00   0.0000000000E+00   0.5752482818E+01   0.5891030074E+01  -0.2897518770E-01
   0.1720800258E+01   0.3401599017E+00   0.8002582135E-03   0.1599016741E-03   0.0000000000E+00   0.0000000000E+00  -0.1854981933E+01  -0.1794152384E+01  -0.1233205216E-01
   0.1001426394E+01   0.0000000000E+00   0.1426394171E-02   0.0000000000E+00   0.0000000000E+00   0.0000000000E+00   0.5541036698E+01   0.5693482340E+01  -0.6125350412E-02
   0.1750817998E+01   0.0000000000E+00   0.8179980670E-03   0.0000000000E+00   0.0000000000E+00   0.0000000000E+00  -0.1926394202E+01  -0.1859937042E+01  -0.1806403278E-02
   0.4901136545E+00   0.2450561364E+01   0.1136545269E-03   0.5613642780E-03   0.0000000000E+00   0.0000000000E+00   0.2856586788E+00   0.2583428414E+00  -0.5525579208E-02
   0.0000000000E+00   0.2500573648E+01   0.0000000000E+00   0.5736478512E-03   0.0000000000E+00   0.0000000000E+00   0.3115087523E+00   0.2818510348E+00  -0.9856434018E-03
   0.9602209167E+00   0.2310526512E+01   0.2209167309E-03   0.5265120266E-03   0.0000000000E+00   0.0000000000E+00   0.2934133506E+00   0.2728580916E+00  -0.1049681779E-01
   0.1390319095E+01   0.2080474232E+01   0.3190946481E-03   0.4742322334E-03   0.0000000000E+00   0.0000000000E+00   0.3060621345E+00   0.2948407906E+00  -0.1331789059E-01
   0.1770405536E+01   0.1770405536E+01   0.4055357315E-03   0.4055357315E-03   0.0000000000E+00   0.0000000000E+00   0.2786427160E+00   0.2786427160E+00  -0.1444066454E-01
   0.2080474232E+01   0.1390319095E+01   0.4742322334E-03   0.3190946481E-03   0.0000000000E+00   0.0000000000E+00   0.2948407906E+00   0.3060621345E+00  -0.1331789059E-01
   0.2310526512E+01   0.9602209167E+00   0.5265120266E-03   0.2209167309E-03   0.0000000000E+00   0.0000000000E+00   0.2728580916E+00   0.2934133506E+00  -0.1049681779E-01
   0.2450561364E+01   0.4901136545E+00   0.5613642780E-03   0.1136545269E-03   0.0000000000E+00   0.0000000000E+00   0.2583428414E+00   0.2856586788E+00  -0.5525579208E-02
   0.2500573648E+01   0.0000000000E+00   0.5736478512E-03   0.0000000000E+00   0.0000000000E+00   0.0000000000E+00   0.2818510348E+00   0.3115087523E+00  -0.9856434018E-03
   0.6300869458E+00   0.3190430751E+01   0.8694583094E-04   0.4307513349E-03   0.0000000000E+00   0.0000000000E+00  -0.4816142922E-01  -0.6522654454E-01  -0.3369986088E-02
   0.0000000000E+00   0.3250439936E+01   0.0000000000E+00   0.4399360024E-03   0.0000000000E+00   0.0000000000E+00  -0.5518378361E-01  -0.7374126851E-01  -0.5551850836E-03
   0.1240170940E+01   0.3000406909E+01   0.1709399876E-03   0.4069093091E-03   0.0000000000E+00   0.0000000000E+00  -0.5031680364E-01  -0.6321768858E-01  -0.6385385217E-02
   0.1810247731E+01   0.2700366531E+01   0.2477314811E-03   0.3665312757E-03   0.0000000000E+00   0.0000000000E+00  -0.5615682511E-01  -0.6330722187E-01  -0.8250469301E-02
   0.2300314420E+01   0.2300314420E+01   0.3144204441E-03   0.3144204441E-03   0.0000000000E+00   0.0000000000E+00  -0.5396605881E-01  -0.5396605881E-01  -0.8909611451E-02
   0.2700366531E+01   0.1810247731E+01   0.3665312757E-03   0.2477314811E-03   0.0000000000E+00   0.0000000000E+00  -0.6330722187E-01  -0.5615682511E-01  -0.8250469301E-02
   0.3000406909E+01   0.1240170940E+01   0.4069093091E-03   0.1709399876E-03   0.0000000000E+00   0.0000000000E+00  -0.6321768858E-01  -0.5031680364E-01  -0.6385385217E-02
   0.3190430751E+01   0.6300869458E+00   0.4307513349E-03   0.8694583094E-04   0.0000000000E+00   0.0000000000E+00  -0.6522654454E-01  -0.4816142922E-01  -0.3369986088E-02
   0.3250439936E+01   0.0000000000E+00   0.4399360024E-03   0.0000000000E+00   0.0000000000E+00   0.0000000000E+00  -0.7374126851E-01  -0.5518378361E-01  -0.5551850836E-03
   0.7800712601E+00   0.3920349570E+01   0.7126007604E-04   0.3495700747E-03   0.0000000000E+00   0.0000000000E+00  -0.1248849567E+00  -0.1366588713E+00  -0.2308276368E-02
   0.0000000000E+00   0.4000356489E+01   0.0000000000E+00   0.3564894368E-03   0.0000000000E+00   0.0000000000E+00  -0.1210934756E+00  -0.1338030014E+00  -0.4057899195E-03
   0.1530139371E+01   0.3700329969E+01   0.1393709307E-03   0.3299693973E-03   0.0000000000E+00   0.0000000000E+00  -0.1239475988E+00  -0.1329733407E+00  -0.4413904823E-02
   0.2220202238E+01   0.3330299256E+01   0.2022376841E-03   0.2992555649E-03   0.0000000000E+00   0.0000000000E+00  -0.1235217230E+00  -0.1286037976E+00  -0.5649104776E-02
   0.2830257943E+01   0.2830257943E+01   0.2579426666E-03   0.2579426666E-03   0.0000000000E+00   0.0000000000E+00  -0.1280682791E+00  -0.1280682791E+00  -0.6092857404E-02
   0.3330299256E+01   0.2220202238E+01   0.2992555649E-03   0.2022376841E-03   0.0000000000E+00   0.0000000000E+00  -0.1286037976E+00  -0.1235217230E+00  -0.5649104776E-02
   0.3700329969E+01   0.1530139371E+01   0.3299693973E-03   0.1393709307E-03   0.0000000000E+00   0.0000000000E+00  -0.1329733407E+00  -0.1239475988E+00  -0.4413904823E-02
   0.3920349570E+01   0.7800712601E+00   0.3495700747E-03   0.7126007604E-04   0.0000000000E+00   0.0000000000E+00  -0.1366588713E+00  -0.1248849567E+00  -0.2308276368E-02
   0.4000356489E+01   0.0000000000E+00   0.3564894368E-03   0.0000000000E+00   0.0000000000E+00   0.0000000000E+00  -0.1338030014E+00  -0.1210934756E+00  -0.4057899195E-03
           1           2           3           4
           2           5           6           3
           5           7           8           6
           7           9          10           8
           9          11          12          10
          11          13          14          12
          13          15          16          14
          15          17          18          16
           4           3          19          20
           3           6          21          19
           6           8          22          21
           8          10          23          22
          10          12          24          23
          12          14          25          24
          14          16          26          25
          16          18          27          26
          20          19          28          29
          19          21          30          28
          21          22          31          30
          22          23          32          31
          23          24          33          32
          24          25          34          33
          25          26          35          34
          26          27          36          35
          29          28          37          38
          28          30          39          37
          30          31          40          39
          31          32          41          40
          32          33          42          41
          33          34          43          42
          34          35          44          43
          35          36          45          44
