VARIABLES = TIME,e11,e22,e33,e12,e13,e23,s11,s22,s33,s12,s13,s23
  0.50000D-01  0.10000D-01 -0.48335D-02 -0.48335D-02  0.30494D-18 -0.37272D-18  0.54212D-18  0.99883D+00  0.25386D-09  0.25386D-09  0.10267D-16 -0.12549D-16  0.18252D-16
  0.10000D+00  0.20000D-01 -0.98215D-02 -0.98215D-02 -0.43368D-18  0.18295D-17  0.19995D-18  0.10711D+01  0.43366D-06  0.43366D-06 -0.77886D-17  0.32857D-16  0.35909D-17
  0.15000D+00  0.30000D-01 -0.14814D-01 -0.14814D-01  0.14670D-17  0.65728D-18  0.20330D-18  0.11157D+01  0.17859D-09  0.17859D-09  0.18261D-16  0.81817D-17  0.25306D-17
  0.20000D+00  0.40000D-01 -0.19809D-01 -0.19809D-01 -0.48281D-17 -0.75219D-18  0.40677D-19  0.11483D+01  0.18800D-10  0.18800D-10 -0.46350D-16 -0.72210D-17  0.39051D-18
  0.25000D+00  0.50000D-01 -0.24804D-01 -0.24804D-01  0.12537D-17 -0.50845D-19  0.94531D-18  0.11743D+01  0.39140D-11  0.39140D-11  0.98409D-17 -0.39910D-18  0.74200D-17
  0.30000D+00  0.60000D-01 -0.29801D-01 -0.29801D-01 -0.64043D-18  0.17948D-18 -0.19379D-17  0.11960D+01  0.11566D-11  0.11567D-11 -0.42646D-17  0.11952D-17 -0.12905D-16
  0.35000D+00  0.70000D-01 -0.34798D-01 -0.34798D-01  0.23780D-19 -0.18967D-18 -0.10231D-19  0.12146D+01  0.42566D-12  0.42566D-12  0.13780D-18 -0.10991D-17 -0.59285D-19
  0.40000D+00  0.80000D-01 -0.39795D-01 -0.39795D-01  0.25546D-17 -0.21999D-18  0.54648D-17  0.12309D+01  0.18246D-12  0.18246D-12  0.13125D-16 -0.11302D-17  0.28076D-16
  0.45000D+00  0.90000D-01 -0.44792D-01 -0.44792D-01  0.12214D-16  0.71141D-19  0.83688D-18  0.12455D+01  0.90477D-13  0.90429D-13  0.56431D-16  0.32869D-18  0.38666D-17
  0.50000D+00  0.10000D+00 -0.49790D-01 -0.49790D-01  0.97781D-17  0.40314D-18  0.39985D-18  0.12587D+01  0.46265D-13  0.46250D-13  0.41085D-16  0.16939D-17  0.16800D-17
  0.55000D+00  0.90000D-01 -0.44792D-01 -0.44792D-01 -0.86045D-18  0.20342D-19 -0.75557D-18  0.12455D+01  0.13036D-12  0.13036D-12 -0.39754D-17  0.93984D-19 -0.34909D-17
  0.60000D+00  0.80000D-01 -0.39795D-01 -0.39795D-01 -0.32628D-17  0.10637D-17  0.25988D-17  0.12309D+01  0.66252D-13  0.66234D-13 -0.16763D-16  0.54652D-17  0.13352D-16
  0.65000D+00  0.70000D-01 -0.34798D-01 -0.34798D-01 -0.18284D-18 -0.33865D-18  0.32171D-18  0.12146D+01  0.14282D-12  0.14284D-12 -0.10595D-17 -0.19624D-17  0.18643D-17
  0.70000D+00  0.60000D-01 -0.29801D-01 -0.29801D-01 -0.11178D-17 -0.36928D-18  0.26258D-17  0.11960D+01  0.31771D-12  0.31771D-12 -0.74438D-17 -0.24590D-17  0.17485D-16
  0.75000D+00  0.50000D-01 -0.24804D-01 -0.24804D-01  0.35508D-17 -0.25735D-18  0.11823D-17  0.11743D+01  0.80283D-12  0.80280D-12  0.27871D-16 -0.20200D-17  0.92802D-17
  0.80000D+00  0.40000D-01 -0.19809D-01 -0.19809D-01  0.26597D-17  0.17957D-18 -0.74539D-18  0.11483D+01  0.25056D-11  0.25056D-11  0.25533D-16  0.17239D-17 -0.71558D-17
  0.85000D+00  0.30000D-01 -0.14814D-01 -0.14814D-01 -0.69115D-18 -0.12807D-17  0.71153D-18  0.11157D+01  0.10359D-10  0.10359D-10 -0.86032D-17 -0.15942D-16  0.88569D-17
  0.90000D+00  0.20000D-01 -0.98215D-02 -0.98215D-02 -0.78929D-18  0.84371D-18 -0.46085D-18  0.10711D+01  0.70558D-10  0.70558D-10 -0.14175D-16  0.15152D-16 -0.82764D-17
  0.95000D+00  0.10000D-01 -0.48335D-02 -0.48335D-02 -0.13893D-18  0.30150D-18 -0.87749D-18  0.99883D+00  0.14473D-07  0.14473D-07 -0.46774D-17  0.10151D-16 -0.29543D-16
  0.97500D+00  0.50000D-02 -0.23638D-02 -0.23638D-02  0.41504D-18 -0.23704D-19 -0.30156D-18  0.81748D+00  0.29078D-15  0.25467D-15  0.23037D-16 -0.13157D-17 -0.16738D-16
  0.98750D+00  0.25000D-02 -0.11514D-02 -0.11514D-02  0.34644D-18  0.49130D-19 -0.82164D-19  0.59176D+00  0.26633D-06  0.26633D-06  0.28073D-16  0.39811D-17 -0.66580D-17
  0.10031D+01 -0.62500D-03  0.26840D-03  0.26840D-03 -0.14484D-18  0.53357D-19  0.72004D-19 -0.26459D+00 -0.97330D-12 -0.97327D-12 -0.21448D-16  0.79013D-17  0.10662D-16
  0.10188D+01 -0.37500D-02  0.17548D-02  0.17548D-02 -0.35745D-18 -0.24818D-18  0.62042D-19 -0.72147D+00 -0.19754D-13 -0.19726D-13 -0.23424D-16 -0.16263D-16  0.40657D-17
  0.10383D+01 -0.76563D-02  0.36702D-02  0.36702D-02 -0.20837D-18  0.32524D-18  0.94886D-19 -0.94727D+00 -0.28176D-09 -0.28176D-09 -0.87134D-17  0.13601D-16  0.39678D-17
  0.10627D+01 -0.12539D-01  0.60992D-02  0.60992D-02 -0.13180D-17  0.37246D-19 -0.46415D-18 -0.10220D+01 -0.12904D-12 -0.12902D-12 -0.36134D-16  0.10211D-17 -0.12725D-16
  0.10932D+01 -0.18643D-01  0.91440D-02  0.91440D-02 -0.37947D-18  0.25750D-18 -0.27106D-18 -0.10636D+01 -0.30318D-13 -0.30335D-13 -0.72625D-17  0.49283D-17 -0.51876D-17
  0.11314D+01 -0.26272D-01  0.12953D-01  0.12953D-01 -0.50825D-18  0.39295D-18  0.27451D-18 -0.11009D+01 -0.10556D-13 -0.10543D-13 -0.71324D-17  0.55144D-17  0.38523D-17
  0.11790D+01 -0.35809D-01  0.17715D-01  0.17715D-01  0.38289D-18  0.22700D-18  0.30832D-18 -0.11357D+01 -0.33817D-14 -0.33632D-14  0.40620D-17  0.24083D-17  0.32709D-17
  0.12290D+01 -0.45809D-01  0.22710D-01  0.22710D-01  0.84693D-19 -0.41665D-18  0.20320D-18 -0.11641D+01 -0.52766D-15 -0.52766D-15  0.71942D-18 -0.35392D-17  0.17260D-17
  0.12790D+01 -0.55809D-01  0.27706D-01  0.27706D-01 -0.29240D-17  0.27092D-18 -0.36240D-18 -0.11873D+01 -0.18679D-11 -0.18679D-11 -0.20785D-16  0.19258D-17 -0.25761D-17
  0.13290D+01 -0.65809D-01  0.32703D-01  0.32703D-01 -0.58632D-18 -0.30149D-18  0.34554D-18 -0.12071D+01 -0.63612D-12 -0.63606D-12 -0.35922D-17 -0.18471D-17  0.21170D-17
  0.13790D+01 -0.75809D-01  0.37700D-01  0.37700D-01 -0.87766D-18  0.12842D-17 -0.17958D-17 -0.12243D+01 -0.25629D-12 -0.25629D-12 -0.47332D-17  0.69257D-17 -0.96848D-17
  0.14290D+01 -0.85809D-01  0.42698D-01  0.42698D-01 -0.31373D-17 -0.82685D-18  0.23854D-17 -0.12396D+01 -0.11693D-12 -0.11695D-12 -0.15132D-16 -0.39880D-17  0.11505D-16
  0.14790D+01 -0.95809D-01  0.47695D-01  0.47695D-01  0.75998D-17  0.28116D-18 -0.54887D-17 -0.12534D+01 -0.64881D-13 -0.64896D-13  0.33188D-16  0.12278D-17 -0.23969D-16
  0.15290D+01 -0.94191D-01  0.46887D-01  0.46887D-01 -0.70346D-17 -0.36580D-19 -0.40808D-17 -0.12512D+01 -0.17683D-13 -0.17683D-13 -0.31195D-16 -0.16221D-18 -0.18097D-16
  0.15790D+01 -0.84191D-01  0.41889D-01  0.41889D-01  0.35641D-17  0.20009D-18  0.28154D-17 -0.12372D+01 -0.91567D-14 -0.91908D-14  0.17488D-16  0.98173D-18  0.13814D-16
  0.16290D+01 -0.74191D-01  0.36892D-01  0.36892D-01  0.96492D-17  0.51512D-18  0.30458D-17 -0.12217D+01 -0.10884D-12 -0.10888D-12  0.53060D-16  0.28326D-17  0.16749D-16
  0.16790D+01 -0.64191D-01  0.31895D-01  0.31895D-01 -0.37064D-17 -0.36255D-18 -0.23276D-17 -0.12041D+01 -0.21899D-12 -0.21897D-12 -0.23223D-16 -0.22716D-17 -0.14584D-16
  0.17290D+01 -0.54191D-01  0.26898D-01  0.26898D-01  0.19347D-17 -0.62702D-18 -0.10535D-17 -0.11838D+01 -0.53664D-12 -0.53664D-12  0.14123D-16 -0.45769D-17 -0.76899D-17
  0.17790D+01 -0.44191D-01  0.21902D-01  0.21902D-01 -0.48076D-17  0.64038D-18  0.90122D-18 -0.11599D+01 -0.15160D-11 -0.15160D-11 -0.42184D-16  0.56189D-17  0.79077D-17
  0.18290D+01 -0.34191D-01  0.16907D-01  0.16907D-01 -0.26156D-17 -0.25750D-18  0.11994D-17 -0.11304D+01 -0.54588D-11 -0.54588D-11 -0.28931D-16 -0.28483D-17  0.13267D-16
  0.18790D+01 -0.24191D-01  0.11914D-01  0.11914D-01  0.14161D-17  0.34233D-18 -0.18648D-18 -0.10918D+01 -0.29049D-10 -0.29049D-10  0.21412D-16  0.51761D-17 -0.28196D-17
  0.19290D+01 -0.14191D-01  0.69232D-02  0.69232D-02 -0.21244D-17  0.67792D-19  0.11350D-17 -0.10348D+01 -0.32897D-09 -0.32897D-09 -0.52057D-16  0.16612D-17  0.27812D-16
  0.19790D+01 -0.41913D-02  0.19692D-02  0.19692D-02 -0.61328D-18 -0.43034D-18 -0.10159D-18 -0.75857D+00 -0.11822D-14 -0.11288D-14 -0.37758D-16 -0.26495D-16 -0.62548D-17
  0.20290D+01  0.58087D-02 -0.27600D-02 -0.27600D-02 -0.58103D-18  0.15421D-18 -0.51674D-18  0.86636D+00  0.59020D-12  0.59019D-12 -0.29374D-16  0.77960D-17 -0.26123D-16
  0.20790D+01  0.15809D-01 -0.77300D-02 -0.77300D-02 -0.64355D-19 -0.27082D-19 -0.57262D-18  0.10461D+01  0.96998D-15  0.94107D-15 -0.14300D-17 -0.60178D-18 -0.12724D-16
  0.21290D+01  0.25809D-01 -0.12721D-01 -0.12721D-01  0.27107D-18  0.83355D-18 -0.44731D-18  0.10989D+01  0.49691D-08  0.49691D-08  0.38657D-17  0.11887D-16 -0.63789D-17
  0.21790D+01  0.35809D-01 -0.17715D-01 -0.17715D-01  0.10125D-19  0.10496D-18  0.12164D-17  0.11357D+01  0.42924D-10  0.42924D-10  0.10741D-18  0.11135D-17  0.12905D-16
  0.22290D+01  0.45809D-01 -0.22710D-01 -0.22710D-01  0.39981D-17 -0.35247D-18 -0.60975D-18  0.11641D+01  0.71549D-11  0.71549D-11  0.33961D-16 -0.29940D-17 -0.51795D-17
  0.22790D+01  0.55809D-01 -0.27706D-01 -0.27706D-01  0.33915D-17 -0.34841D-20  0.12503D-17  0.11873D+01  0.18688D-11  0.18688D-11  0.24108D-16 -0.24766D-19  0.88878D-17
  0.23290D+01  0.65809D-01 -0.32703D-01 -0.32703D-01  0.11013D-17 -0.38268D-18  0.45722D-18  0.12071D+01  0.63787D-12  0.63783D-12  0.67473D-17 -0.23445D-17  0.28012D-17
  0.23790D+01  0.75809D-01 -0.37700D-01 -0.37700D-01 -0.39844D-17  0.96206D-18 -0.11503D-18  0.12243D+01  0.26154D-12  0.26156D-12 -0.21488D-16  0.51884D-17 -0.62037D-18
  0.24290D+01  0.85809D-01 -0.42698D-01 -0.42698D-01  0.22361D-17  0.25064D-18 -0.12840D-17  0.12396D+01  0.11536D-12  0.11533D-12  0.10785D-16  0.12089D-17 -0.61930D-17
  0.24790D+01  0.95809D-01 -0.47695D-01 -0.47695D-01  0.27984D-17 -0.42331D-18  0.90104D-18  0.12534D+01  0.59870D-13  0.59840D-13  0.12220D-16 -0.18486D-17  0.39348D-17
  0.25290D+01  0.94191D-01 -0.46887D-01 -0.46887D-01 -0.74096D-17  0.86662D-19  0.20140D-17  0.12512D+01  0.14058D-13  0.14089D-13 -0.32858D-16  0.38430D-18  0.89310D-17
  0.25790D+01  0.84191D-01 -0.41889D-01 -0.41889D-01 -0.86462D-17  0.16292D-18  0.71121D-18  0.12372D+01  0.72114D-14  0.72625D-14 -0.42423D-16  0.79940D-18  0.34896D-17
  0.26290D+01  0.74191D-01 -0.36892D-01 -0.36892D-01 -0.33881D-17 -0.41021D-18  0.57962D-18  0.12217D+01  0.10171D-12  0.10167D-12 -0.18631D-16 -0.22557D-17  0.31873D-17
  0.26790D+01  0.64191D-01 -0.31895D-01 -0.31895D-01 -0.55769D-17  0.42684D-18 -0.30526D-17  0.12041D+01  0.22044D-12  0.22044D-12 -0.34943D-16  0.26744D-17 -0.19127D-16
  0.27290D+01  0.54191D-01 -0.26898D-01 -0.26898D-01 -0.23141D-17 -0.94516D-18  0.54084D-19  0.11838D+01  0.53453D-12  0.53453D-12 -0.16892D-16 -0.68992D-17  0.39479D-18
  0.27790D+01  0.44191D-01 -0.21902D-01 -0.21902D-01 -0.50824D-17  0.90800D-18 -0.91456D-19  0.11599D+01  0.15181D-11  0.15181D-11 -0.44595D-16  0.79671D-17 -0.80247D-18
  0.28290D+01  0.34191D-01 -0.16907D-01 -0.16907D-01 -0.87412D-18 -0.18296D-18  0.16602D-18  0.11304D+01  0.54633D-11  0.54634D-11 -0.96686D-17 -0.20237D-17  0.18363D-17
  0.28790D+01  0.24191D-01 -0.11914D-01 -0.11914D-01  0.11622D-17  0.24731D-18  0.95548D-18  0.10918D+01  0.29049D-10  0.29049D-10  0.17572D-16  0.37393D-17  0.14447D-16
  0.29290D+01  0.14191D-01 -0.69232D-02 -0.69232D-02 -0.38621D-18 -0.34565D-18 -0.33197D-18  0.10348D+01  0.32897D-09  0.32897D-09 -0.94637D-17 -0.84699D-17 -0.81347D-17
  0.29790D+01  0.41913D-02 -0.19692D-02 -0.19692D-02 -0.96565D-18 -0.62005D-18 -0.44721D-18  0.75857D+00  0.13719D-14  0.13185D-14 -0.59452D-16 -0.38174D-16 -0.27534D-16
  0.30290D+01  0.58087D-02 -0.27600D-02 -0.27600D-02 -0.22361D-18  0.31350D-19 -0.34738D-19  0.86636D+00  0.28016D-12  0.28015D-12 -0.11304D-16  0.15849D-17 -0.17562D-17
  0.30790D+01  0.15809D-01 -0.77300D-02 -0.77300D-02 -0.39982D-18 -0.10161D-18  0.19987D-18  0.10461D+01  0.29884D-07  0.29884D-07 -0.88843D-17 -0.22579D-17  0.44412D-17
  0.31290D+01  0.25809D-01 -0.12721D-01 -0.12721D-01  0.79961D-18  0.59290D-18 -0.46415D-18  0.10989D+01  0.49692D-08  0.49692D-08  0.11403D-16  0.84552D-17 -0.66191D-17
  0.31790D+01  0.35809D-01 -0.17715D-01 -0.17715D-01 -0.14467D-17 -0.47772D-18 -0.70135D-18  0.11357D+01  0.42922D-10  0.42922D-10 -0.15348D-16 -0.50680D-17 -0.74406D-17
  0.32290D+01  0.45809D-01 -0.22710D-01 -0.22710D-01 -0.51503D-18 -0.67086D-18  0.12807D-17  0.11641D+01  0.71581D-11  0.71581D-11 -0.43748D-17 -0.56985D-17  0.10879D-16
  0.32790D+01  0.55809D-01 -0.27706D-01 -0.27706D-01 -0.88435D-18 -0.50821D-18  0.15246D-18  0.11873D+01  0.18676D-11  0.18676D-11 -0.62863D-17 -0.36126D-17  0.10837D-17
  0.33290D+01  0.65809D-01 -0.32703D-01 -0.32703D-01 -0.43167D-17  0.80641D-18 -0.21074D-17  0.12071D+01  0.63831D-12  0.63835D-12 -0.26447D-16  0.49405D-17 -0.12912D-16
  0.33790D+01  0.75809D-01 -0.37700D-01 -0.37700D-01 -0.93495D-18 -0.10151D-18  0.11417D-17  0.12243D+01  0.26018D-12  0.26018D-12 -0.50422D-17 -0.54747D-18  0.61571D-17
  0.34290D+01  0.85809D-01 -0.42698D-01 -0.42698D-01  0.47096D-17  0.57589D-18  0.47841D-17  0.12396D+01  0.11917D-12  0.11917D-12  0.22715D-16  0.27776D-17  0.23074D-16
  0.34790D+01  0.95809D-01 -0.47695D-01 -0.47695D-01  0.37814D-17  0.25773D-18 -0.72529D-18  0.12534D+01  0.53212D-13  0.53212D-13  0.16513D-16  0.11255D-17 -0.31673D-17
  0.35290D+01  0.94191D-01 -0.46887D-01 -0.46887D-01 -0.15338D-17  0.14892D-18 -0.31694D-17  0.12512D+01  0.12035D-13  0.12051D-13 -0.68015D-17  0.66041D-18 -0.14055D-16
  0.35790D+01  0.84191D-01 -0.41889D-01 -0.41889D-01 -0.62001D-17  0.53509D-18  0.34256D-17  0.12372D+01  0.69124D-14  0.69294D-14 -0.30421D-16  0.26254D-17  0.16808D-16
  0.36290D+01  0.74191D-01 -0.36892D-01 -0.36892D-01 -0.62545D-17 -0.95119D-19 -0.26188D-17  0.12217D+01  0.99567D-13  0.99586D-13 -0.34393D-16 -0.52305D-18 -0.14400D-16
  0.36790D+01  0.64191D-01 -0.31895D-01 -0.31895D-01  0.52278D-17  0.28126D-18  0.18295D-17  0.12041D+01  0.21827D-12  0.21825D-12  0.32756D-16  0.17623D-17  0.11463D-16
  0.37290D+01  0.54191D-01 -0.26898D-01 -0.26898D-01  0.40994D-18 -0.24058D-18 -0.46993D-17  0.11838D+01  0.53229D-12  0.53229D-12  0.29924D-17 -0.17561D-17 -0.34303D-16
  0.37790D+01  0.44191D-01 -0.21902D-01 -0.21902D-01 -0.73487D-17  0.11482D-17  0.21379D-18  0.11599D+01  0.15157D-11  0.15158D-11 -0.64480D-16  0.10075D-16  0.18758D-17
  0.38290D+01  0.34191D-01 -0.16907D-01 -0.16907D-01  0.16947D-18  0.32988D-20 -0.33792D-19  0.11304D+01  0.54660D-11  0.54660D-11  0.18745D-17  0.36488D-19 -0.37377D-18
  0.38790D+01  0.24191D-01 -0.11914D-01 -0.11914D-01 -0.79284D-18 -0.84014D-18  0.96551D-18  0.10918D+01  0.29048D-10  0.29048D-10 -0.11988D-16 -0.12703D-16  0.14598D-16
  0.39290D+01  0.14191D-01 -0.69232D-02 -0.69232D-02 -0.11181D-18 -0.50819D-19  0.60986D-18  0.10348D+01  0.32897D-09  0.32897D-09 -0.27398D-17 -0.12453D-17  0.14944D-16
  0.39790D+01  0.41913D-02 -0.19692D-02 -0.19692D-02 -0.69799D-18  0.18288D-18  0.39988D-18  0.75857D+00  0.11232D-14  0.10698D-14 -0.42973D-16  0.11259D-16  0.24620D-16
  0.40290D+01 -0.58087D-02  0.27600D-02  0.27600D-02 -0.82839D-18 -0.14058D-18  0.10840D-18 -0.86636D+00 -0.59029D-12 -0.59030D-12 -0.41879D-16 -0.71071D-17  0.54799D-17
  0.40790D+01 -0.15809D-01  0.77300D-02  0.77300D-02 -0.22360D-18 -0.23038D-18  0.27443D-18 -0.10461D+01 -0.27457D-16 -0.27457D-16 -0.49685D-17 -0.51192D-17  0.60979D-17
  0.41290D+01 -0.25809D-01  0.12721D-01  0.12721D-01  0.54209D-18  0.27103D-18  0.13569D-19 -0.10989D+01 -0.49691D-08 -0.49691D-08  0.77307D-17  0.38652D-17  0.19351D-18
  0.41790D+01 -0.35809D-01  0.17715D-01  0.17715D-01 -0.13654D-17  0.48450D-18  0.14772D-17 -0.11357D+01 -0.42920D-10 -0.42920D-10 -0.14486D-16  0.51400D-17  0.15672D-16
  0.42290D+01 -0.45809D-01  0.22710D-01  0.22710D-01 -0.99948D-18  0.70799D-18 -0.10841D-17 -0.11641D+01 -0.71552D-11 -0.71552D-11 -0.84899D-17  0.60139D-17 -0.92085D-17
  0.42790D+01 -0.55809D-01  0.27706D-01  0.27706D-01  0.10402D-17 -0.29817D-18  0.31172D-18 -0.11873D+01 -0.18672D-11 -0.18672D-11  0.73938D-17 -0.21195D-17  0.22158D-17
  0.43290D+01 -0.65809D-01  0.32703D-01  0.32703D-01 -0.53296D-17 -0.17017D-19  0.29146D-18 -0.12071D+01 -0.63002D-12 -0.62999D-12 -0.32652D-16 -0.10426D-18  0.17856D-17
  0.43790D+01 -0.75809D-01  0.37700D-01  0.37700D-01 -0.23311D-17  0.17950D-18  0.54008D-17 -0.12243D+01 -0.25709D-12 -0.25709D-12 -0.12572D-16  0.96804D-18  0.29126D-16
  0.44290D+01 -0.85809D-01  0.42698D-01  0.42698D-01 -0.38931D-17 -0.49156D-18 -0.46008D-17 -0.12396D+01 -0.11602D-12 -0.11599D-12 -0.18777D-16 -0.23709D-17 -0.22190D-16
  0.44790D+01 -0.95809D-01  0.47695D-01  0.47695D-01 -0.46993D-17  0.80630D-18  0.58961D-18 -0.12534D+01 -0.60434D-13 -0.60404D-13 -0.20522D-16  0.35211D-17  0.25748D-17
  0.45290D+01 -0.94191D-01  0.46887D-01  0.46887D-01  0.76655D-17  0.15242D-18  0.19660D-17 -0.12512D+01 -0.25601D-13 -0.25617D-13  0.33993D-16  0.67591D-18  0.87183D-17
  0.45790D+01 -0.84191D-01  0.41889D-01  0.41889D-01 -0.16229D-17 -0.24056D-18 -0.65391D-18 -0.12372D+01 -0.83510D-14 -0.83510D-14 -0.79627D-17 -0.11803D-17 -0.32084D-17
  0.46290D+01 -0.74191D-01  0.36892D-01  0.36892D-01 -0.54786D-17  0.41007D-18  0.20667D-17 -0.12217D+01 -0.10269D-12 -0.10267D-12 -0.30126D-16  0.22550D-17  0.11364D-16
  0.46790D+01 -0.64191D-01  0.31895D-01  0.31895D-01 -0.61393D-17 -0.47444D-19  0.68441D-18 -0.12041D+01 -0.22136D-12 -0.22130D-12 -0.38467D-16 -0.29727D-18  0.42883D-17
  0.47290D+01 -0.54191D-01  0.26898D-01  0.26898D-01 -0.37911D-17  0.80295D-18 -0.27139D-17 -0.11838D+01 -0.53705D-12 -0.53702D-12 -0.27673D-16  0.58612D-17 -0.19810D-16
  0.47790D+01 -0.44191D-01  0.21902D-01  0.21902D-01 -0.12572D-17  0.11870D-18 -0.27455D-18 -0.11599D+01 -0.15152D-11 -0.15152D-11 -0.11031D-16  0.10415D-17 -0.24090D-17
